ITEM = _(1..50);
capacities = [325, 302, 604];
profits = [10, 994, 346, 355, 709, 132, 339, 91, 191, 554, 47, 158, 45, 48, 940, 125, 169, 560, 505, 859, 62, 940, 542, 81, 129, 845, 632, 648, 226, 519, 653, 862, 265, 389, 191, 991, 911, 965, 449, 965, 631, 36, 608, 380, 969, 771, 763, 811, 763, 648];
weights = [24, 13, 18, 14, 65, 96, 47, 88, 98, 55, 89, 86, 77, 17, 95, 21, 98, 37, 41, 63, 74, 11, 98, 65, 26, 83, 92, 12, 92, 12, 18, 50, 37, 14, 100, 83, 15, 92, 83, 41, 17, 23, 64, 72, 65, 22, 12, 71, 93, 58];
