ITEM = _(1..10000);
capacities = [544, 899, 870];
profits = [840, 976, 164, 523, 156, 486, 488, 674, 729, 556, 653, 785, 691, 884, 791, 730, 88, 53, 46, 946, 353, 797, 217, 81, 659, 154, 42, 336, 808, 820, 968, 260, 598, 696, 368, 550, 499, 445, 179, 163, 694, 561, 321, 24, 798, 727, 626, 742, 187, 520, 816, 36, 923, 91, 66, 803, 193, 114, 960, 431, 292, 664, 384, 10, 858, 565, 35, 736, 447, 154, 548, 296, 409, 454, 497, 67, 114, 214, 308, 806, 549, 465, 190, 195, 680, 944, 836, 121, 485, 653, 238, 130, 44, 806, 45, 21, 483, 916, 102, 660, 697, 373, 429, 158, 518, 68, 826, 958, 482, 120, 525, 74, 310, 772, 938, 276, 483, 697, 550, 602, 656, 696, 123, 557, 309, 991, 519, 675, 11, 248, 634, 683, 221, 906, 724, 121, 675, 962, 473, 96, 608, 71, 961, 756, 960, 280, 19, 270, 661, 50, 194, 633, 950, 329, 90, 320, 192, 900, 316, 876, 204, 644, 938, 56, 153, 354, 345, 959, 84, 254, 16, 103, 511, 279, 800, 760, 72, 496, 97, 537, 244, 243, 803, 188, 579, 1000, 949, 88, 767, 448, 233, 420, 776, 438, 170, 603, 78, 340, 955, 939, 300, 664, 705, 205, 909, 603, 501, 414, 837, 242, 431, 776, 116, 23, 437, 296, 610, 602, 730, 426, 182, 911, 892, 404, 613, 818, 558, 307, 251, 141, 914, 786, 94, 576, 831, 782, 341, 127, 578, 889, 974, 367, 991, 833, 210, 96, 980, 39, 881, 225, 361, 333, 695, 37, 56, 138, 431, 324, 817, 935, 224, 633, 145, 800, 851, 216, 787, 664, 188, 515, 88, 315, 454, 286, 366, 163, 381, 280, 473, 385, 379, 800, 536, 530, 33, 24, 230, 609, 277, 591, 717, 332, 276, 682, 45, 809, 785, 48, 773, 198, 104, 580, 774, 97, 566, 864, 391, 632, 331, 959, 39, 664, 281, 919, 758, 130, 600, 653, 163, 150, 311, 26, 798, 647, 770, 675, 483, 649, 613, 57, 378, 134, 42, 647, 311, 740, 328, 485, 616, 243, 76, 504, 392, 257, 264, 11, 315, 90, 518, 475, 985, 999, 129, 780, 682, 156, 87, 625, 690, 666, 752, 881, 273, 624, 139, 419, 959, 963, 512, 261, 38, 877, 355, 25, 634, 309, 349, 476, 754, 747, 385, 153, 942, 839, 996, 578, 506, 557, 508, 309, 739, 974, 312, 844, 118, 329, 17, 899, 922, 105, 555, 307, 980, 606, 897, 542, 252, 870, 601, 709, 109, 319, 577, 867, 35, 296, 950, 972, 783, 364, 115, 838, 94, 230, 234, 496, 986, 276, 232, 470, 732, 150, 347, 447, 774, 595, 565, 132, 295, 637, 870, 255, 324, 586, 980, 268, 649, 941, 971, 56, 762, 897, 439, 456, 741, 734, 141, 713, 857, 688, 699, 624, 565, 282, 919, 554, 722, 29, 688, 431, 173, 749, 732, 100, 653, 152, 80, 672, 738, 446, 15, 567, 88, 151, 516, 703, 804, 712, 759, 647, 251, 43, 35, 210, 846, 323, 411, 719, 805, 204, 944, 715, 261, 816, 519, 489, 170, 479, 10, 664, 975, 83, 500, 17, 277, 406, 171, 557, 456, 486, 42, 648, 458, 191, 524, 188, 636, 948, 204, 334, 393, 411, 94, 121, 673, 705, 124, 201, 298, 116, 619, 127, 167, 245, 363, 701, 946, 433, 884, 403, 308, 972, 901, 704, 508, 354, 116, 396, 560, 637, 998, 111, 525, 91, 723, 777, 309, 527, 743, 552, 599, 734, 894, 225, 48, 825, 408, 838, 57, 483, 913, 17, 757, 376, 279, 170, 289, 549, 707, 81, 743, 727, 68, 922, 349, 896, 256, 754, 211, 568, 800, 977, 715, 689, 513, 957, 298, 304, 308, 654, 344, 655, 725, 52, 428, 72, 539, 727, 706, 818, 789, 92, 942, 786, 459, 346, 259, 301, 96, 315, 675, 193, 531, 730, 723, 458, 156, 362, 322, 870, 757, 247, 311, 871, 106, 184, 640, 278, 716, 593, 92, 964, 95, 794, 471, 355, 153, 466, 883, 903, 123, 905, 720, 362, 843, 230, 224, 226, 302, 105, 620, 24, 317, 334, 949, 954, 80, 431, 189, 66, 452, 594, 394, 524, 823, 27, 145, 672, 393, 114, 465, 323, 448, 408, 285, 618, 930, 482, 481, 143, 995, 392, 23, 84, 227, 623, 127, 960, 870, 376, 640, 557, 492, 357, 290, 38, 248, 723, 563, 617, 633, 526, 821, 709, 696, 339, 424, 240, 33, 859, 94, 890, 164, 685, 824, 108, 31, 593, 968, 224, 773, 480, 269, 962, 28, 31, 798, 822, 160, 715, 805, 555, 542, 250, 76, 102, 102, 352, 155, 573, 658, 791, 563, 622, 407, 408, 432, 108, 336, 397, 37, 894, 180, 220, 182, 584, 847, 839, 981, 61, 984, 236, 625, 147, 938, 281, 501, 698, 751, 726, 297, 557, 31, 674, 513, 21, 580, 447, 796, 180, 247, 779, 438, 192, 379, 368, 284, 931, 45, 300, 662, 410, 943, 215, 316, 367, 288, 728, 788, 613, 230, 328, 895, 406, 892, 953, 261, 821, 619, 719, 948, 31, 182, 907, 663, 34, 436, 518, 489, 794, 744, 878, 761, 375, 243, 849, 68, 238, 604, 777, 515, 425, 523, 552, 759, 965, 85, 51, 152, 646, 928, 557, 922, 379, 189, 536, 677, 870, 202, 37, 896, 43, 469, 13, 821, 207, 660, 224, 495, 326, 73, 276, 951, 217, 31, 939, 391, 247, 673, 100, 594, 601, 368, 21, 884, 827, 476, 22, 486, 436, 261, 272, 338, 973, 630, 212, 942, 227, 898, 694, 440, 863, 856, 198, 806, 221, 935, 832, 608, 54, 99, 139, 785, 316, 900, 168, 836, 944, 428, 811, 652, 988, 309, 753, 283, 393, 861, 504, 283, 131, 271, 602, 413, 724, 142, 472, 622, 681, 555, 336, 593, 67, 312, 144, 447, 128, 34, 739, 219, 25, 522, 42, 174, 635, 269, 940, 808, 510, 191, 567, 197, 848, 485, 952, 915, 361, 301, 550, 992, 586, 402, 603, 798, 336, 270, 689, 479, 66, 490, 775, 90, 777, 606, 734, 549, 563, 672, 142, 402, 281, 134, 649, 239, 508, 972, 184, 261, 751, 870, 139, 147, 325, 517, 880, 833, 976, 795, 705, 824, 473, 232, 335, 910, 890, 677, 85, 410, 81, 831, 516, 350, 691, 35, 683, 269, 392, 964, 379, 787, 13, 475, 718, 548, 127, 321, 910, 878, 148, 509, 728, 200, 909, 128, 954, 159, 742, 957, 806, 461, 564, 434, 460, 664, 252, 159, 262, 852, 323, 933, 762, 836, 232, 133, 119, 972, 994, 451, 436, 144, 720, 97, 521, 915, 689, 720, 925, 230, 238, 383, 517, 909, 828, 142, 451, 560, 948, 384, 712, 956, 394, 803, 192, 77, 965, 95, 372, 887, 456, 577, 293, 325, 14, 269, 153, 701, 183, 779, 31, 399, 235, 540, 771, 266, 171, 793, 755, 269, 862, 501, 832, 474, 269, 338, 209, 225, 665, 994, 22, 404, 866, 922, 941, 379, 187, 124, 566, 876, 226, 382, 49, 336, 47, 645, 748, 551, 316, 563, 202, 516, 717, 294, 426, 588, 742, 830, 864, 507, 208, 551, 359, 278, 875, 990, 889, 906, 926, 941, 353, 460, 819, 40, 227, 420, 934, 388, 207, 783, 240, 286, 90, 495, 510, 150, 808, 578, 442, 233, 956, 497, 130, 762, 713, 455, 374, 825, 210, 51, 996, 744, 97, 777, 707, 556, 954, 895, 920, 601, 97, 152, 843, 924, 918, 58, 881, 24, 988, 503, 242, 360, 409, 195, 374, 37, 70, 743, 321, 895, 589, 596, 826, 945, 922, 750, 58, 177, 680, 511, 722, 524, 536, 145, 153, 310, 805, 170, 262, 625, 420, 541, 835, 622, 761, 195, 791, 326, 548, 981, 925, 972, 548, 166, 527, 55, 984, 652, 211, 207, 572, 12, 407, 18, 134, 695, 92, 976, 551, 736, 622, 810, 421, 430, 998, 653, 396, 75, 79, 229, 419, 777, 447, 444, 319, 107, 950, 517, 170, 821, 907, 736, 165, 155, 894, 449, 273, 448, 947, 340, 25, 775, 165, 217, 618, 51, 153, 230, 224, 145, 696, 985, 564, 589, 975, 39, 493, 853, 751, 198, 838, 683, 688, 294, 708, 174, 542, 402, 278, 910, 391, 664, 371, 318, 725, 815, 729, 684, 625, 148, 89, 861, 582, 815, 734, 10, 16, 505, 111, 974, 630, 108, 962, 185, 430, 940, 209, 377, 552, 740, 641, 677, 875, 725, 304, 419, 386, 878, 408, 646, 320, 313, 779, 708, 888, 115, 88, 612, 107, 485, 214, 687, 416, 692, 648, 242, 285, 873, 290, 47, 580, 647, 965, 557, 67, 945, 637, 49, 80, 942, 843, 877, 753, 923, 361, 773, 816, 470, 363, 168, 270, 664, 336, 144, 729, 928, 882, 786, 808, 636, 741, 479, 533, 440, 104, 756, 291, 961, 503, 976, 599, 841, 223, 661, 696, 946, 983, 52, 344, 822, 968, 706, 557, 569, 766, 987, 862, 455, 208, 295, 797, 798, 83, 355, 37, 395, 143, 737, 559, 401, 957, 946, 211, 324, 731, 131, 599, 740, 15, 746, 652, 649, 789, 509, 163, 952, 843, 772, 379, 865, 888, 170, 991, 296, 718, 944, 627, 289, 720, 412, 898, 901, 862, 931, 969, 679, 870, 48, 288, 102, 714, 468, 551, 234, 147, 699, 27, 512, 983, 37, 474, 506, 272, 828, 436, 851, 449, 544, 460, 519, 976, 660, 46, 27, 999, 915, 70, 388, 211, 525, 793, 832, 311, 148, 197, 543, 676, 413, 737, 823, 386, 913, 169, 803, 668, 392, 366, 625, 668, 156, 862, 106, 445, 986, 997, 540, 842, 451, 603, 729, 660, 751, 863, 851, 169, 55, 622, 483, 583, 832, 803, 485, 339, 139, 206, 160, 336, 103, 538, 130, 921, 12, 933, 624, 340, 907, 264, 968, 139, 815, 955, 336, 401, 808, 317, 955, 712, 262, 994, 200, 827, 224, 911, 301, 297, 567, 367, 817, 76, 136, 557, 928, 886, 264, 206, 719, 380, 989, 578, 133, 460, 721, 223, 930, 574, 327, 336, 778, 391, 526, 951, 875, 935, 14, 866, 31, 277, 687, 542, 731, 122, 128, 781, 366, 327, 708, 431, 911, 239, 922, 623, 682, 307, 331, 703, 722, 409, 810, 279, 195, 667, 270, 393, 752, 948, 427, 737, 62, 735, 517, 969, 118, 725, 137, 56, 384, 101, 100, 50, 944, 726, 984, 803, 593, 372, 137, 541, 10, 98, 268, 534, 206, 115, 170, 291, 150, 106, 128, 694, 653, 872, 579, 247, 521, 69, 379, 907, 546, 81, 52, 54, 603, 463, 66, 536, 87, 847, 844, 680, 798, 584, 938, 214, 26, 575, 835, 39, 978, 653, 173, 682, 598, 493, 582, 680, 899, 230, 504, 287, 631, 197, 102, 426, 823, 357, 461, 761, 272, 331, 674, 587, 619, 255, 212, 253, 921, 297, 923, 459, 704, 923, 639, 777, 963, 994, 187, 641, 756, 913, 766, 502, 992, 322, 10, 183, 129, 227, 291, 549, 545, 130, 869, 351, 745, 87, 492, 755, 545, 358, 307, 483, 214, 42, 321, 974, 902, 743, 791, 88, 974, 805, 256, 792, 198, 727, 654, 562, 64, 693, 529, 493, 699, 955, 117, 112, 424, 183, 643, 241, 446, 355, 459, 980, 886, 886, 536, 796, 387, 218, 34, 380, 35, 308, 722, 769, 50, 292, 62, 176, 837, 924, 950, 611, 868, 986, 48, 708, 915, 291, 143, 968, 256, 126, 908, 608, 110, 922, 971, 253, 850, 923, 371, 345, 191, 586, 389, 864, 708, 735, 777, 998, 232, 589, 36, 497, 186, 628, 592, 92, 200, 406, 651, 880, 881, 801, 609, 925, 526, 630, 763, 913, 192, 566, 755, 79, 643, 391, 540, 722, 360, 314, 930, 728, 198, 833, 239, 460, 461, 253, 787, 656, 181, 172, 400, 384, 957, 346, 621, 359, 304, 465, 604, 919, 782, 67, 653, 984, 387, 53, 336, 108, 660, 933, 570, 933, 352, 724, 124, 444, 393, 440, 580, 479, 188, 840, 967, 898, 293, 283, 444, 488, 80, 47, 743, 977, 566, 501, 740, 478, 871, 161, 441, 999, 326, 830, 252, 209, 896, 804, 616, 316, 45, 583, 481, 981, 810, 510, 283, 892, 927, 213, 115, 831, 217, 308, 888, 824, 375, 900, 197, 938, 840, 962, 625, 719, 94, 144, 730, 844, 908, 478, 318, 38, 847, 112, 526, 412, 132, 764, 382, 304, 98, 916, 441, 500, 188, 401, 599, 85, 639, 196, 115, 953, 234, 76, 140, 222, 604, 531, 43, 359, 979, 718, 555, 447, 750, 156, 94, 39, 982, 494, 706, 524, 377, 129, 631, 62, 693, 490, 474, 952, 112, 691, 971, 272, 423, 876, 782, 575, 665, 673, 969, 498, 547, 442, 236, 515, 430, 73, 902, 520, 609, 814, 47, 333, 519, 746, 244, 418, 788, 838, 145, 150, 851, 597, 241, 181, 329, 457, 775, 899, 793, 300, 470, 698, 127, 310, 707, 791, 655, 587, 588, 890, 890, 547, 727, 940, 190, 698, 285, 140, 577, 654, 499, 810, 337, 47, 465, 106, 813, 488, 96, 354, 210, 75, 913, 111, 708, 370, 512, 339, 613, 142, 91, 690, 592, 382, 441, 785, 461, 222, 429, 634, 749, 842, 700, 577, 287, 650, 592, 757, 374, 568, 747, 414, 894, 745, 593, 777, 68, 31, 969, 223, 334, 48, 123, 169, 176, 913, 92, 240, 337, 776, 682, 125, 345, 911, 379, 832, 661, 787, 24, 404, 623, 89, 786, 113, 802, 727, 148, 656, 779, 367, 407, 18, 293, 218, 80, 844, 952, 686, 272, 413, 409, 993, 962, 17, 333, 482, 972, 231, 262, 963, 670, 543, 116, 891, 132, 441, 640, 952, 413, 968, 737, 542, 483, 999, 641, 81, 745, 543, 346, 941, 387, 429, 479, 213, 519, 60, 885, 630, 907, 143, 231, 653, 859, 878, 517, 762, 807, 55, 614, 168, 850, 541, 639, 513, 248, 253, 507, 379, 845, 142, 384, 794, 925, 301, 792, 154, 360, 420, 783, 689, 701, 464, 806, 400, 149, 818, 224, 702, 823, 541, 293, 882, 479, 215, 648, 784, 921, 600, 313, 545, 673, 194, 803, 540, 269, 779, 506, 425, 294, 280, 844, 911, 332, 974, 413, 674, 339, 564, 468, 173, 462, 278, 464, 231, 519, 577, 728, 455, 349, 299, 566, 293, 715, 126, 496, 825, 178, 665, 719, 677, 190, 488, 686, 421, 402, 609, 705, 440, 804, 309, 45, 249, 572, 737, 494, 490, 419, 29, 515, 253, 922, 115, 430, 25, 142, 197, 554, 460, 191, 401, 878, 996, 226, 721, 18, 368, 142, 995, 299, 765, 728, 61, 20, 685, 944, 470, 584, 547, 354, 746, 746, 339, 152, 551, 117, 597, 309, 762, 402, 288, 433, 895, 772, 97, 999, 987, 443, 787, 171, 567, 770, 79, 676, 21, 232, 534, 240, 520, 921, 678, 419, 387, 329, 282, 820, 485, 587, 240, 239, 966, 573, 914, 96, 26, 567, 572, 963, 587, 252, 408, 598, 772, 206, 953, 56, 18, 30, 660, 564, 129, 834, 679, 14, 521, 147, 693, 437, 384, 414, 526, 180, 697, 724, 729, 665, 256, 50, 649, 760, 610, 314, 606, 990, 768, 365, 51, 255, 434, 829, 148, 60, 976, 881, 81, 623, 606, 834, 741, 873, 753, 478, 479, 457, 703, 276, 816, 290, 379, 890, 42, 978, 857, 479, 204, 395, 274, 215, 382, 812, 65, 867, 395, 836, 884, 791, 776, 912, 170, 48, 488, 895, 361, 335, 103, 265, 389, 70, 371, 140, 854, 768, 404, 612, 955, 202, 150, 790, 110, 734, 44, 589, 862, 748, 431, 802, 427, 677, 510, 604, 667, 702, 730, 278, 458, 900, 654, 519, 843, 957, 183, 858, 327, 564, 866, 599, 810, 967, 72, 294, 324, 942, 624, 298, 783, 598, 347, 629, 767, 814, 682, 335, 868, 787, 275, 451, 898, 420, 40, 469, 685, 94, 731, 917, 105, 18, 323, 921, 714, 237, 494, 154, 869, 895, 581, 991, 822, 684, 889, 237, 153, 782, 38, 365, 726, 10, 978, 863, 770, 758, 463, 123, 438, 604, 108, 272, 558, 453, 275, 530, 790, 475, 73, 305, 553, 153, 184, 747, 797, 181, 290, 19, 499, 330, 258, 112, 823, 384, 836, 584, 943, 197, 155, 944, 210, 419, 654, 488, 76, 827, 130, 316, 772, 578, 275, 849, 242, 397, 392, 611, 144, 653, 115, 54, 213, 855, 600, 274, 244, 448, 141, 548, 964, 27, 755, 318, 775, 942, 793, 593, 142, 916, 911, 134, 25, 390, 488, 14, 53, 161, 558, 984, 509, 218, 832, 694, 794, 356, 161, 981, 304, 461, 570, 697, 799, 82, 956, 539, 364, 682, 962, 271, 183, 458, 900, 176, 591, 508, 761, 797, 192, 118, 329, 585, 919, 925, 381, 988, 88, 844, 167, 650, 500, 661, 995, 582, 686, 710, 40, 51, 565, 845, 245, 28, 77, 364, 817, 810, 533, 673, 528, 832, 132, 306, 855, 626, 489, 625, 673, 130, 638, 721, 62, 76, 556, 75, 867, 486, 312, 711, 847, 580, 711, 155, 945, 317, 808, 107, 180, 750, 583, 255, 852, 400, 606, 715, 552, 496, 362, 772, 644, 338, 591, 837, 356, 563, 166, 665, 852, 758, 588, 650, 732, 332, 43, 199, 110, 894, 504, 951, 155, 756, 66, 846, 550, 86, 903, 823, 757, 603, 637, 591, 271, 373, 940, 257, 274, 269, 903, 615, 62, 602, 392, 865, 132, 211, 100, 340, 113, 77, 486, 752, 864, 37, 287, 748, 927, 677, 32, 379, 493, 680, 882, 777, 291, 138, 941, 157, 924, 108, 591, 994, 558, 582, 775, 528, 481, 47, 284, 318, 250, 579, 753, 38, 236, 356, 319, 569, 847, 873, 275, 472, 92, 575, 982, 684, 277, 668, 336, 801, 305, 617, 564, 58, 652, 443, 442, 232, 517, 619, 938, 483, 417, 32, 527, 117, 805, 320, 549, 593, 35, 741, 200, 689, 505, 386, 25, 372, 65, 136, 24, 88, 639, 382, 814, 788, 240, 276, 141, 335, 635, 37, 681, 415, 286, 869, 884, 366, 45, 570, 782, 761, 249, 102, 94, 206, 302, 34, 517, 440, 895, 314, 920, 695, 874, 901, 637, 253, 506, 90, 402, 731, 440, 266, 289, 947, 324, 735, 400, 495, 189, 354, 630, 769, 250, 80, 587, 443, 187, 274, 736, 270, 395, 124, 628, 778, 859, 541, 113, 437, 559, 796, 201, 169, 971, 357, 22, 393, 683, 144, 103, 396, 546, 276, 984, 735, 194, 445, 837, 408, 935, 762, 772, 506, 678, 955, 46, 162, 807, 76, 505, 800, 757, 777, 431, 162, 380, 927, 881, 144, 295, 976, 928, 291, 159, 838, 976, 108, 768, 198, 551, 226, 16, 882, 834, 600, 842, 983, 641, 264, 73, 880, 325, 820, 275, 889, 665, 419, 467, 613, 717, 477, 251, 829, 284, 144, 978, 319, 728, 370, 40, 890, 299, 316, 568, 865, 474, 887, 974, 563, 786, 505, 927, 451, 896, 491, 81, 501, 548, 558, 1000, 983, 324, 710, 813, 689, 391, 64, 431, 365, 11, 702, 34, 675, 564, 908, 300, 237, 466, 232, 209, 262, 17, 780, 666, 917, 921, 357, 38, 564, 339, 433, 258, 421, 257, 114, 193, 872, 33, 308, 830, 138, 17, 941, 516, 705, 612, 774, 422, 525, 587, 651, 803, 215, 32, 439, 518, 574, 365, 631, 323, 134, 237, 516, 348, 390, 558, 789, 507, 357, 989, 708, 601, 88, 814, 436, 627, 880, 197, 281, 944, 855, 906, 132, 724, 539, 887, 506, 852, 843, 198, 784, 925, 549, 599, 593, 146, 867, 321, 877, 510, 99, 340, 293, 854, 905, 717, 122, 389, 986, 773, 812, 493, 650, 875, 276, 159, 782, 841, 549, 491, 264, 305, 63, 920, 123, 365, 718, 533, 366, 466, 408, 676, 70, 874, 466, 332, 255, 360, 669, 69, 227, 426, 92, 792, 896, 434, 89, 723, 114, 14, 691, 161, 873, 170, 682, 264, 889, 352, 577, 265, 187, 400, 477, 319, 601, 113, 875, 907, 634, 978, 353, 158, 415, 831, 664, 13, 489, 482, 679, 239, 970, 483, 237, 665, 199, 473, 132, 781, 14, 471, 212, 797, 890, 733, 950, 495, 338, 28, 405, 584, 278, 327, 688, 431, 689, 969, 557, 76, 36, 700, 102, 786, 867, 40, 557, 335, 376, 292, 558, 563, 556, 388, 104, 492, 577, 352, 241, 127, 723, 943, 990, 540, 835, 531, 676, 822, 572, 855, 853, 309, 443, 111, 796, 138, 422, 905, 842, 341, 369, 947, 270, 882, 162, 444, 925, 783, 491, 290, 411, 181, 96, 984, 800, 555, 220, 351, 172, 399, 495, 567, 732, 781, 651, 367, 379, 59, 716, 304, 206, 495, 690, 201, 854, 719, 438, 507, 299, 419, 710, 900, 308, 895, 794, 489, 610, 884, 352, 863, 900, 210, 68, 142, 857, 324, 67, 161, 832, 454, 75, 289, 396, 306, 560, 196, 567, 485, 966, 28, 914, 431, 631, 238, 506, 971, 382, 187, 424, 817, 518, 458, 702, 37, 258, 305, 246, 200, 419, 592, 509, 631, 449, 425, 499, 755, 69, 845, 359, 846, 837, 770, 227, 794, 331, 816, 202, 737, 856, 595, 12, 901, 546, 634, 776, 450, 690, 95, 667, 292, 493, 159, 47, 327, 614, 249, 900, 755, 440, 856, 743, 954, 429, 563, 589, 378, 493, 813, 969, 760, 141, 389, 788, 442, 703, 100, 874, 620, 493, 427, 475, 361, 924, 781, 824, 839, 828, 350, 613, 710, 212, 573, 191, 86, 128, 52, 171, 841, 902, 999, 730, 65, 786, 76, 248, 459, 502, 67, 670, 778, 766, 944, 387, 859, 665, 206, 507, 731, 161, 101, 197, 825, 617, 132, 468, 443, 362, 260, 974, 747, 845, 761, 167, 810, 940, 55, 344, 321, 760, 787, 604, 481, 361, 521, 255, 491, 258, 97, 418, 761, 362, 562, 750, 61, 495, 976, 32, 925, 59, 216, 657, 189, 17, 143, 208, 424, 382, 170, 290, 55, 640, 853, 267, 87, 469, 705, 566, 836, 587, 283, 468, 271, 842, 986, 315, 912, 297, 947, 905, 885, 700, 113, 811, 216, 290, 415, 455, 98, 231, 189, 788, 444, 59, 477, 306, 66, 302, 799, 604, 507, 795, 177, 464, 210, 640, 420, 744, 115, 684, 349, 959, 27, 422, 528, 35, 134, 663, 682, 952, 146, 116, 530, 162, 374, 90, 719, 685, 703, 377, 529, 297, 500, 219, 308, 433, 308, 810, 578, 348, 16, 248, 907, 172, 760, 942, 911, 436, 217, 284, 689, 852, 313, 583, 717, 557, 779, 603, 367, 455, 938, 178, 312, 448, 909, 183, 106, 763, 305, 335, 281, 167, 103, 938, 912, 645, 467, 422, 65, 82, 608, 406, 925, 172, 427, 999, 742, 285, 249, 320, 99, 881, 556, 644, 62, 43, 421, 739, 511, 870, 240, 581, 520, 630, 581, 502, 786, 763, 36, 159, 27, 153, 558, 486, 109, 781, 394, 372, 886, 813, 606, 291, 891, 434, 929, 85, 321, 362, 236, 254, 435, 958, 788, 545, 778, 465, 949, 672, 937, 150, 873, 388, 917, 728, 325, 51, 213, 296, 171, 995, 678, 932, 297, 872, 652, 269, 129, 174, 818, 200, 979, 948, 324, 122, 482, 57, 1000, 373, 18, 991, 687, 958, 158, 857, 491, 580, 397, 115, 519, 427, 696, 352, 683, 586, 169, 564, 974, 621, 654, 687, 965, 793, 732, 231, 357, 906, 881, 992, 768, 135, 946, 678, 592, 571, 112, 715, 680, 962, 529, 11, 553, 496, 628, 868, 433, 625, 215, 134, 530, 227, 183, 369, 861, 36, 556, 888, 405, 707, 706, 974, 737, 642, 874, 328, 529, 405, 261, 397, 867, 504, 876, 627, 115, 103, 560, 930, 350, 368, 445, 669, 537, 84, 427, 813, 954, 278, 531, 732, 496, 120, 91, 819, 741, 714, 787, 687, 411, 972, 189, 656, 286, 908, 357, 404, 349, 125, 47, 996, 795, 94, 36, 251, 14, 424, 480, 159, 979, 787, 929, 968, 940, 867, 210, 457, 17, 935, 185, 355, 809, 325, 867, 514, 173, 381, 418, 832, 712, 529, 501, 72, 741, 574, 38, 111, 413, 102, 919, 762, 101, 819, 706, 315, 442, 960, 536, 523, 870, 750, 375, 721, 361, 241, 311, 858, 775, 360, 935, 860, 460, 594, 298, 540, 457, 357, 259, 151, 805, 191, 927, 907, 86, 776, 151, 356, 879, 890, 32, 801, 859, 816, 547, 619, 387, 295, 689, 385, 688, 11, 903, 915, 279, 686, 566, 18, 32, 472, 90, 104, 395, 788, 51, 843, 529, 599, 105, 213, 206, 729, 201, 893, 693, 24, 680, 813, 366, 596, 670, 348, 473, 887, 46, 293, 387, 855, 145, 630, 524, 123, 529, 720, 427, 312, 328, 398, 501, 237, 529, 718, 663, 642, 916, 896, 554, 32, 95, 38, 86, 742, 924, 237, 99, 60, 532, 514, 238, 146, 934, 803, 302, 47, 20, 645, 273, 145, 47, 624, 794, 590, 596, 608, 260, 894, 209, 878, 874, 891, 935, 58, 674, 374, 589, 202, 842, 248, 870, 191, 923, 769, 417, 513, 774, 868, 53, 865, 582, 441, 149, 780, 59, 578, 347, 829, 524, 355, 204, 627, 994, 276, 332, 829, 503, 551, 194, 250, 353, 719, 591, 779, 326, 620, 753, 783, 523, 270, 851, 202, 403, 722, 885, 282, 935, 127, 299, 84, 815, 209, 857, 970, 772, 179, 12, 125, 378, 950, 698, 839, 726, 712, 147, 632, 80, 62, 138, 660, 300, 701, 511, 171, 58, 883, 295, 946, 485, 750, 776, 980, 929, 244, 981, 52, 492, 542, 373, 80, 103, 995, 569, 808, 954, 360, 617, 696, 415, 485, 190, 967, 890, 707, 77, 81, 193, 980, 848, 206, 790, 272, 408, 982, 317, 887, 32, 689, 907, 299, 846, 60, 227, 752, 766, 651, 325, 217, 497, 187, 152, 235, 935, 67, 421, 189, 853, 811, 999, 46, 388, 718, 307, 250, 734, 502, 917, 62, 476, 630, 845, 688, 652, 997, 899, 759, 720, 450, 103, 942, 720, 273, 640, 917, 170, 215, 990, 720, 854, 134, 298, 268, 458, 241, 286, 820, 269, 424, 305, 850, 680, 353, 794, 894, 511, 462, 506, 678, 240, 997, 653, 324, 972, 752, 929, 744, 75, 410, 184, 135, 391, 298, 832, 693, 684, 855, 245, 97, 928, 831, 819, 779, 893, 357, 996, 230, 145, 345, 955, 720, 53, 496, 136, 937, 258, 824, 464, 354, 751, 386, 979, 246, 641, 680, 742, 126, 444, 710, 404, 606, 138, 233, 329, 418, 34, 561, 435, 155, 29, 784, 863, 474, 957, 210, 883, 556, 245, 392, 188, 886, 23, 476, 345, 596, 896, 623, 252, 28, 742, 995, 422, 751, 750, 886, 165, 236, 980, 690, 78, 572, 686, 864, 793, 883, 45, 133, 838, 980, 340, 794, 87, 899, 800, 552, 890, 305, 105, 45, 380, 759, 241, 430, 731, 686, 439, 45, 72, 704, 645, 490, 542, 451, 711, 356, 333, 85, 931, 120, 892, 803, 283, 694, 908, 742, 426, 595, 397, 715, 889, 652, 126, 792, 124, 861, 761, 435, 281, 505, 742, 874, 425, 189, 749, 593, 336, 401, 58, 113, 636, 751, 705, 843, 346, 288, 938, 553, 307, 629, 729, 616, 217, 184, 397, 629, 854, 311, 165, 350, 931, 688, 862, 729, 562, 736, 191, 189, 656, 288, 579, 488, 243, 361, 760, 718, 253, 148, 132, 591, 106, 383, 420, 53, 17, 927, 489, 435, 550, 11, 213, 735, 248, 985, 747, 313, 216, 703, 77, 760, 707, 172, 89, 411, 815, 525, 412, 188, 369, 617, 487, 223, 972, 641, 454, 820, 624, 805, 198, 580, 462, 269, 501, 757, 250, 259, 848, 450, 560, 919, 699, 468, 909, 978, 724, 92, 474, 385, 212, 845, 455, 91, 578, 894, 637, 647, 524, 330, 133, 198, 175, 617, 905, 946, 331, 286, 167, 703, 885, 46, 27, 857, 772, 367, 624, 453, 797, 372, 260, 914, 249, 372, 171, 872, 690, 851, 149, 210, 738, 352, 234, 721, 87, 668, 130, 415, 785, 823, 57, 351, 536, 752, 519, 855, 171, 625, 921, 412, 895, 983, 761, 11, 878, 352, 161, 535, 651, 121, 676, 269, 481, 463, 387, 479, 891, 578, 150, 713, 148, 214, 421, 902, 198, 527, 386, 873, 966, 810, 868, 129, 285, 678, 331, 731, 946, 487, 907, 269, 385, 177, 578, 702, 339, 851, 995, 636, 953, 771, 759, 120, 587, 913, 235, 533, 424, 221, 810, 881, 767, 269, 355, 909, 609, 36, 997, 637, 589, 633, 881, 999, 428, 79, 817, 852, 97, 805, 393, 463, 760, 606, 764, 960, 299, 510, 240, 456, 609, 645, 581, 360, 920, 274, 647, 177, 672, 178, 68, 493, 108, 504, 599, 154, 420, 402, 915, 561, 572, 505, 543, 408, 52, 813, 799, 593, 504, 633, 121, 640, 913, 807, 784, 245, 578, 779, 324, 996, 24, 742, 350, 583, 574, 626, 107, 612, 106, 225, 129, 55, 570, 907, 346, 643, 498, 587, 22, 396, 452, 521, 264, 221, 155, 789, 134, 689, 223, 413, 28, 303, 254, 983, 233, 603, 490, 300, 735, 848, 818, 798, 436, 53, 428, 99, 481, 733, 188, 246, 318, 135, 699, 530, 943, 71, 750, 893, 306, 566, 978, 176, 122, 600, 881, 111, 678, 293, 740, 648, 772, 94, 966, 815, 552, 42, 331, 885, 666, 370, 559, 394, 252, 724, 265, 871, 28, 202, 650, 106, 435, 540, 968, 917, 89, 101, 285, 972, 177, 631, 94, 343, 853, 187, 488, 827, 282, 946, 611, 865, 668, 458, 703, 527, 104, 332, 422, 59, 113, 730, 207, 216, 793, 521, 514, 909, 81, 317, 426, 89, 84, 235, 80, 316, 792, 929, 587, 279, 285, 100, 48, 249, 945, 805, 95, 372, 108, 259, 504, 300, 289, 808, 793, 321, 465, 324, 681, 528, 567, 995, 900, 711, 125, 984, 838, 527, 213, 351, 600, 165, 267, 417, 670, 612, 717, 791, 905, 901, 231, 583, 158, 879, 960, 164, 774, 328, 892, 155, 765, 426, 435, 407, 113, 647, 583, 529, 895, 505, 102, 733, 129, 70, 582, 244, 518, 710, 272, 513, 301, 736, 30, 838, 639, 737, 600, 762, 518, 471, 851, 213, 437, 189, 962, 501, 103, 147, 474, 925, 461, 897, 418, 460, 793, 629, 229, 469, 212, 275, 776, 317, 12, 54, 540, 53, 895, 627, 192, 564, 263, 363, 865, 235, 349, 210, 25, 835, 302, 498, 625, 871, 908, 699, 799, 182, 275, 465, 32, 381, 796, 258, 233, 529, 409, 836, 97, 926, 442, 218, 906, 257, 784, 983, 251, 567, 907, 272, 755, 236, 391, 497, 848, 943, 265, 877, 816, 755, 54, 62, 161, 341, 795, 271, 226, 281, 538, 200, 308, 642, 165, 644, 205, 328, 199, 495, 237, 988, 56, 730, 642, 155, 27, 139, 839, 171, 436, 832, 537, 557, 389, 115, 583, 420, 561, 261, 468, 213, 488, 557, 506, 899, 707, 892, 844, 688, 133, 601, 942, 881, 750, 810, 147, 449, 533, 444, 716, 759, 469, 678, 58, 647, 64, 990, 770, 496, 951, 597, 924, 692, 477, 931, 502, 767, 723, 618, 815, 569, 745, 577, 275, 691, 519, 635, 706, 580, 467, 244, 985, 979, 108, 56, 917, 312, 663, 681, 265, 790, 99, 838, 904, 137, 22, 900, 437, 201, 238, 659, 182, 426, 977, 549, 292, 145, 591, 589, 357, 267, 591, 406, 551, 162, 341, 924, 499, 209, 32, 741, 95, 865, 96, 280, 920, 534, 875, 950, 834, 255, 560, 118, 129, 604, 335, 351, 968, 552, 314, 379, 262, 416, 75, 600, 820, 130, 728, 73, 166, 465, 398, 340, 881, 928, 264, 188, 906, 192, 991, 174, 681, 608, 53, 198, 610, 746, 289, 629, 407, 419, 453, 853, 592, 284, 998, 760, 890, 760, 645, 194, 816, 467, 638, 934, 562, 631, 169, 766, 927, 11, 312, 790, 557, 65, 666, 338, 721, 346, 852, 337, 460, 958, 949, 424, 710, 680, 944, 349, 230, 195, 666, 333, 611, 846, 398, 415, 888, 932, 367, 488, 704, 172, 404, 912, 99, 57, 746, 707, 686, 810, 180, 180, 231, 305, 614, 887, 811, 386, 250, 805, 48, 409, 601, 638, 649, 569, 903, 286, 303, 177, 789, 709, 461, 813, 373, 500, 333, 565, 396, 884, 815, 763, 385, 572, 726, 134, 530, 865, 991, 352, 557, 237, 291, 307, 323, 601, 565, 600, 94, 130, 346, 510, 161, 309, 782, 321, 727, 667, 130, 984, 96, 834, 94, 354, 914, 655, 138, 338, 600, 287, 129, 599, 832, 55, 874, 782, 118, 745, 260, 744, 886, 77, 805, 753, 318, 219, 897, 518, 771, 667, 390, 564, 148, 437, 469, 730, 825, 146, 117, 495, 650, 599, 798, 970, 103, 213, 880, 572, 862, 699, 711, 652, 791, 250, 46, 838, 876, 955, 261, 538, 551, 879, 391, 811, 726, 379, 187, 125, 880, 669, 724, 216, 328, 359, 907, 407, 797, 550, 614, 26, 94, 715, 39, 222, 449, 662, 11, 316, 734, 27, 405, 231, 560, 996, 157, 781, 294, 895, 42, 183, 978, 472, 116, 25, 55, 655, 301, 339, 403, 297, 760, 750, 106, 726, 234, 549, 733, 992, 102, 738, 346, 897, 167, 428, 278, 202, 508, 590, 548, 184, 849, 847, 596, 604, 753, 709, 883, 442, 79, 409, 585, 943, 86, 745, 897, 911, 496, 393, 253, 257, 30, 179, 429, 344, 209, 752, 536, 752, 488, 708, 920, 10, 254, 571, 977, 62, 356, 767, 379, 442, 124, 853, 744, 868, 868, 939, 228, 21, 533, 813, 22, 904, 671, 205, 839, 382, 410, 678, 229, 966, 876, 572, 162, 530, 819, 615, 611, 545, 410, 94, 200, 434, 634, 157, 126, 893, 958, 694, 514, 880, 574, 946, 683, 859, 631, 83, 570, 55, 74, 479, 825, 68, 803, 411, 136, 28, 545, 228, 114, 827, 1000, 76, 738, 974, 725, 264, 822, 223, 255, 538, 751, 532, 729, 359, 17, 308, 927, 467, 563, 980, 730, 96, 776, 831, 193, 184, 264, 245, 612, 627, 82, 720, 371, 385, 850, 799, 490, 540, 50, 768, 964, 126, 24, 739, 887, 206, 45, 123, 614, 859, 480, 398, 390, 992, 705, 689, 606, 387, 76, 912, 144, 159, 651, 93, 970, 324, 1000, 858, 411, 668, 726, 149, 957, 615, 479, 155, 638, 308, 31, 986, 813, 16, 672, 349, 629, 369, 330, 23, 970, 312, 237, 922, 301, 670, 659, 987, 782, 374, 257, 270, 832, 75, 379, 101, 335, 228, 548, 571, 427, 742, 360, 593, 622, 764, 138, 593, 486, 375, 833, 317, 156, 457, 825, 445, 257, 976, 824, 550, 448, 893, 738, 244, 194, 570, 705, 485, 479, 768, 934, 410, 844, 888, 96, 50, 94, 202, 644, 98, 11, 376, 143, 988, 975, 461, 686, 146, 405, 720, 616, 20, 415, 454, 873, 391, 219, 901, 259, 958, 331, 809, 546, 652, 478, 857, 466, 171, 742, 671, 809, 261, 781, 47, 363, 790, 45, 341, 618, 153, 569, 327, 193, 102, 623, 685, 432, 907, 400, 310, 383, 298, 386, 143, 148, 813, 929, 407, 398, 819, 679, 113, 10, 50, 384, 236, 461, 648, 875, 368, 912, 780, 566, 387, 319, 532, 125, 788, 463, 913, 513, 972, 151, 193, 771, 716, 642, 431, 260, 187, 976, 983, 358, 121, 857, 303, 769, 864, 188, 496, 379, 311, 489, 524, 662, 155, 245, 326, 549, 123, 194, 547, 964, 710, 973, 94, 954, 569, 240, 639, 365, 178, 196, 72, 986, 412, 92, 875, 523, 135, 673, 376, 669, 231, 348, 298, 807, 213, 96, 522, 695, 121, 891, 650, 96, 956, 389, 658, 976, 134, 612, 128, 976, 663, 799, 836, 200, 985, 807, 495, 397, 871, 104, 30, 191, 187, 263, 757, 742, 756, 55, 433, 265, 10, 857, 207, 861, 569, 118, 792, 293, 902, 484, 482, 487, 942, 793, 692, 751, 958, 242, 33, 501, 596, 810, 604, 635, 16, 719, 618, 309, 430, 43, 745, 851, 64, 394, 501, 203, 221, 41, 773, 225, 268, 370, 739, 242, 82, 557, 730, 104, 82, 209, 183, 393, 829, 276, 124, 948, 506, 270, 130, 366, 148, 78, 778, 907, 389, 764, 301, 377, 699, 421, 257, 156, 690, 582, 655, 481, 314, 324, 488, 634, 122, 108, 298, 107, 868, 375, 422, 663, 310, 121, 739, 206, 901, 139, 821, 636, 121, 585, 633, 489, 383, 79, 788, 682, 763, 675, 546, 464, 246, 708, 754, 853, 783, 676, 920, 250, 333, 890, 1000, 517, 357, 277, 232, 359, 266, 955, 850, 587, 853, 840, 148, 676, 828, 192, 645, 928, 98, 752, 753, 677, 784, 973, 433, 369, 31, 14, 468, 834, 833, 303, 478, 502, 818, 39, 797, 720, 921, 768, 707, 725, 228, 917, 869, 77, 481, 770, 620, 201, 78, 323, 759, 937, 865, 736, 966, 978, 210, 580, 838, 861, 432, 802, 71, 425, 194, 612, 823, 817, 844, 308, 40, 188, 628, 27, 518, 70, 616, 940, 50, 464, 48, 218, 770, 591, 324, 549, 288, 574, 789, 486, 294, 390, 348, 515, 873, 344, 611, 568, 961, 47, 891, 306, 451, 42, 416, 910, 913, 693, 793, 751, 757, 89, 258, 315, 559, 530, 254, 601, 448, 958, 743, 620, 715, 50, 751, 82, 350, 137, 151, 973, 130, 767, 171, 566, 849, 538, 865, 89, 677, 320, 50, 473, 68, 233, 551, 825, 17, 223, 937, 680, 413, 313, 988, 256, 699, 562, 332, 823, 287, 883, 600, 410, 411, 129, 305, 607, 369, 930, 292, 50, 455, 845, 165, 359, 718, 620, 196, 606, 10, 251, 142, 396, 502, 675, 60, 51, 117, 459, 669, 566, 242, 531, 989, 241, 87, 89, 803, 563, 680, 921, 563, 900, 515, 176, 353, 60, 469, 653, 130, 455, 147, 520, 138, 81, 461, 701, 184, 845, 545, 450, 318, 633, 430, 835, 406, 897, 464, 515, 606, 155, 620, 666, 365, 390, 567, 374, 624, 953, 35, 695, 750, 565, 470, 122, 616, 834, 245, 62, 208, 455, 113, 681, 584, 191, 28, 597, 188, 453, 131, 925, 233, 790, 845, 522, 835, 261, 512, 813, 989, 555, 456, 841, 471, 496, 921, 390, 810, 997, 536, 66, 850, 979, 501, 892, 366, 773, 568, 360, 327, 288, 719, 414, 983, 326, 49, 798, 707, 174, 660, 164, 310, 282, 453, 201, 753, 455, 543, 102, 816, 684, 380, 470, 444, 832, 411, 497, 140, 262, 18, 917, 775, 849, 430, 879, 238, 778, 701, 116, 810, 568, 597, 216, 163, 78, 728, 213, 677, 304, 134, 648, 742, 209, 851, 856, 862, 990, 52, 227, 349, 590, 607, 516, 839, 865, 507, 361, 618, 367, 963, 203, 954, 663, 316, 873, 715, 922, 158, 359, 585, 574, 648, 955, 760, 488, 610, 892, 825, 87, 717, 661, 665, 702, 46, 155, 511, 492, 427, 713, 343, 278, 766, 874, 687, 326, 563, 508, 82, 753, 446, 569, 245, 626, 194, 319, 750, 478, 917, 542, 382, 817, 382, 513, 870, 653, 404, 646, 849, 736, 581, 513, 595, 819, 962, 225, 128, 219, 634, 594, 366, 827, 576, 779, 287, 208, 351, 125, 732, 471, 387, 550, 419, 121, 254, 192, 549, 657, 575, 30, 982, 972, 737, 104, 749, 289, 954, 627, 110, 885, 479, 36, 438, 127, 192, 930, 272, 416, 937, 824, 460, 945, 847, 910, 982, 812, 261, 414, 618, 362, 677, 272, 386, 852, 627, 826, 36, 944, 609, 849, 278, 91, 572, 188, 597, 803, 404, 544, 117, 68, 460, 988, 546, 516, 750, 933, 244, 98, 314, 162, 393, 144, 447, 862, 879, 905, 568, 603, 124, 852, 256, 717, 141, 670, 881, 369, 618, 347, 689, 348, 697, 428, 873, 918, 775, 785, 755, 481, 781, 772, 908, 907, 412, 22, 772, 625, 88, 332, 832, 22, 250, 96, 123, 996, 870, 868, 70, 542, 544, 267, 853, 133, 82, 493, 788, 237, 827, 128, 287, 954, 254, 21, 802, 301, 184, 1000, 747, 206, 691, 64, 297, 505, 110, 402, 55, 167, 308, 866, 498, 497, 562, 439, 50, 847, 921, 768, 877, 308, 121, 184, 79, 34, 570, 237, 656, 214, 189, 945, 551, 311, 134, 156, 152, 574, 226, 281, 248, 213, 411, 602, 157, 346, 646, 416, 687, 89, 396, 427, 596, 29, 804, 244, 790, 401, 411, 470, 209, 532, 156, 122, 683, 436, 393, 735, 105, 629, 12, 151, 514, 267, 997, 306, 902, 62, 887, 631, 558, 820, 59, 781, 784, 640, 448, 781, 542, 528, 295, 693, 59, 801, 115, 454, 131, 846, 277, 247, 73, 958, 265, 851, 143, 755, 829, 413, 881, 945, 580, 173, 639, 91, 864, 301, 824, 487, 944, 567, 352, 103, 679, 901, 10, 552, 564, 872, 74, 815, 906, 842, 544, 181, 186, 920, 517, 469, 730, 772, 443, 375, 204, 941, 309, 932, 168, 438, 323, 993, 864, 82, 647, 274, 802, 725, 691, 383, 712, 84, 36, 646, 885, 809, 258, 998, 99, 364, 970, 929, 955, 106, 411, 171, 184, 934, 428, 752, 878, 786, 836, 810, 764, 149, 253, 789, 789, 70, 749, 754, 239, 14, 183, 777, 490, 984, 423, 453, 460, 308, 167, 390, 691, 488, 327, 496, 938, 530, 267, 831, 487, 156, 998, 875, 913, 667, 171, 719, 969, 542, 17, 734, 522, 870, 864, 18, 207, 589, 588, 715, 550, 271, 192, 182, 618, 435, 494, 738, 510, 524, 663, 466, 700, 342, 561, 656, 170, 392, 963, 46, 360, 515, 623, 34, 603, 529, 274, 992, 134, 91, 687, 688, 133, 83, 572, 752, 799, 415, 465, 135, 94, 360, 887, 287, 157, 539, 572, 248, 322, 199, 571, 438, 507, 995, 796, 817, 842, 869, 620, 919, 467, 296, 947, 986, 665, 236, 358, 311, 189, 716, 372, 444, 574, 575, 196, 461, 770, 437, 380, 558, 140, 976, 423, 665, 110, 398, 664, 799, 738, 159, 911, 295, 369, 600, 526, 732, 507, 427, 379, 84, 317, 467, 570, 853, 541, 195, 540, 955, 667, 379, 900, 780, 158, 931, 585, 260, 709, 903, 414, 495, 72, 353, 295, 889, 558, 236, 134, 267, 98, 699, 16, 829, 79, 202, 346, 190, 940, 167, 713, 942, 907, 388, 337, 995, 751, 375, 226, 790, 779, 196, 340, 255, 61, 992, 457, 506, 416, 158, 223, 429, 430, 313, 686, 828, 676, 875, 984, 706, 290, 437, 158, 244, 341, 356, 122, 34, 842, 324, 751, 56, 81, 670, 757, 455, 44, 861, 970, 393, 141, 771, 822, 250, 485, 295, 497, 547, 93, 523, 895, 986, 230, 370, 965, 310, 43, 965, 262, 730, 95, 523, 890, 715, 596, 516, 801, 928, 95, 659, 115, 178, 419, 625, 164, 485, 224, 994, 428, 754, 330, 305, 309, 32, 314, 708, 913, 148, 982, 525, 186, 520, 926, 782, 197, 693, 342, 699, 55, 925, 145, 145, 945, 185, 89, 362, 917, 326, 228, 55, 173, 49, 493, 227, 995, 400, 736, 663, 332, 433, 947, 249, 667, 38, 466, 558, 852, 974, 869, 794, 596, 800, 792, 786, 503, 213, 236, 320, 502, 134, 408, 49, 244, 151, 382, 389, 473, 823, 328, 764, 940, 255, 108, 786, 953, 382, 924, 88, 19, 11, 534, 753, 208, 986, 193, 104, 917, 359, 169, 647, 570, 426, 573, 425, 31, 160, 426, 747, 757, 412, 790, 727, 924, 130, 329, 258, 243, 575, 584, 885, 762, 934, 648, 238, 628, 546, 629, 571, 640, 848, 276, 417, 669, 321, 930, 61, 1000, 724, 892, 254, 780, 828, 143, 985, 128, 272, 447, 518, 175, 602, 141, 406, 987, 65, 28, 618, 225, 818, 18, 625, 267, 79, 620, 791, 263, 528, 602, 794, 205, 482, 653, 878, 535, 456, 303, 124, 293, 753, 455, 367, 874, 956, 755, 433, 593, 587, 88, 690, 16, 35, 837, 941, 123, 708, 474, 102, 560, 255, 641, 275, 706, 464, 139, 220, 697, 34, 33, 872, 32, 850, 399, 1000, 945, 638, 860, 710, 383, 673, 607, 89, 603, 942, 998, 760, 791, 387, 574, 111, 609, 977, 668, 56, 889, 807, 180, 227, 516, 529, 650, 730, 56, 736, 273, 27, 19, 987, 521, 587, 132, 896, 43, 204, 635, 686, 282, 361, 907, 210, 207, 732, 716, 863, 912, 431, 959, 885, 309, 701, 259, 271, 165, 804, 786, 179, 466, 660, 292, 477, 332, 189, 823, 798, 825, 736, 370, 519, 835, 249, 769, 527, 880, 468, 293, 742, 792, 257, 362, 831, 822, 553, 24, 223, 54, 143, 521, 353, 447, 21, 478, 471, 773, 675, 771, 703, 323, 493, 976, 32, 200, 125, 73, 845, 723, 314, 63, 502, 668, 101, 503, 203, 862, 322, 695, 611, 45, 643, 401, 172, 198, 174, 955, 253, 354, 984, 770, 885, 269, 671, 727, 535, 477, 135, 465, 969, 216, 774, 205, 564, 522, 164, 32, 65, 634, 32, 169, 400, 847, 867, 451, 749, 469, 927, 946, 147, 40, 773, 458, 846, 704, 582, 616, 752, 431, 847, 98, 515, 893, 159, 898, 874, 219, 521, 22, 29, 364, 112, 409, 553, 41, 274, 649, 504, 22, 345, 334, 362, 35, 907, 905, 315, 231, 604, 624, 668, 337, 929, 651, 772, 378, 279, 124, 947, 925, 76, 330, 813, 769, 10, 578, 373, 178, 211, 757, 607, 889, 375, 974, 271, 409, 714, 199, 751, 331, 968, 392, 997, 287, 58, 39, 996, 276, 524, 296, 445, 238, 158, 964, 922, 531, 941, 11, 552, 360, 709, 864, 389, 796, 273, 453, 469, 621, 589, 792, 791, 190, 378, 443, 992, 319, 158, 309, 159, 19, 776, 939, 805, 604, 127, 211, 248, 635, 396, 215, 133, 444, 324, 254, 831, 367, 418, 659, 823, 20, 427, 119, 115, 959, 644, 489, 83, 706, 470, 25, 229, 884, 778, 747, 399, 829, 789, 30, 58, 210, 277, 979, 104, 21, 679, 480, 55, 100, 520, 699, 634, 328, 649, 935, 821, 485, 689, 363, 923, 656, 944, 142, 135, 890, 439, 66, 170, 322, 513, 80, 574, 507, 243, 696, 153, 322, 689, 882, 111, 236, 799, 56, 774, 328, 875, 146, 972, 253, 794, 531, 550, 292, 932, 476, 547, 773, 93, 147, 381, 627, 523, 709, 77, 456, 643, 906, 610, 180, 808, 493, 314, 319, 743, 316, 595, 71, 183, 430, 858, 428, 611, 900, 867, 789, 624, 951, 494, 631, 745, 576, 994, 554, 641, 430, 850, 543, 201, 949, 48, 241, 289, 930, 61, 916, 934, 500, 589, 493, 251, 104, 186, 962, 701, 123, 837, 928, 412, 316, 551, 917, 37, 564, 524, 525, 705, 560, 22, 979, 513, 577, 105, 586, 51, 829, 85, 264, 333, 842, 247, 795, 412, 674, 926, 484, 56, 96, 923, 642, 942, 533, 781, 510, 321, 697, 914, 947, 308, 429, 686, 211, 909, 518, 629, 83, 297, 132, 271, 916, 488, 81, 414, 567, 963, 659, 908, 768, 722, 382, 519, 153, 603, 216, 323, 642, 759, 723, 165, 336, 878, 876, 597, 453, 566, 422, 406, 220, 644, 855, 68, 41, 56, 504, 126, 566, 531, 281, 641, 43, 422, 413, 546, 958, 802, 671, 440, 906, 174, 717, 560, 938, 534, 912, 68, 630, 927, 652, 672, 615, 92, 683, 989, 251, 266, 57, 307, 435, 617, 202, 178, 550, 774, 540, 277, 383, 494, 108, 981, 422, 29, 320, 122, 922, 196, 874, 994, 59, 269, 875, 999, 891, 941, 113, 929, 454, 269, 370, 906, 14, 437, 420, 749, 477, 537, 296, 26, 371, 189, 797, 255, 532, 547, 974, 316, 505, 984, 18, 104, 817, 303, 509, 502, 808, 278, 615, 931, 879, 171, 602, 201, 221, 553, 509, 496, 139, 853, 177, 353, 583, 385, 441, 385, 999, 593, 801, 584, 824, 413, 261, 556, 878, 170, 240, 109, 799, 448, 483, 477, 941, 672, 122, 17, 647, 401, 160, 318, 107, 361, 734, 67, 788, 859, 743, 512, 673, 521, 245, 244, 43, 631, 197, 122, 255, 438, 14, 156, 391, 644, 790, 539, 194, 220, 437, 271, 425, 843, 942, 691, 930, 439, 814, 569, 300, 611, 881, 889, 32, 823, 55, 296, 238, 633, 940, 901, 124, 931, 109, 351, 24, 883, 971, 249, 388, 647, 73, 896, 575, 727, 927, 622, 27, 124, 70, 375, 557, 183, 263, 276, 635, 168, 293, 744, 109, 959, 352, 977, 627, 451, 444, 113, 643, 901, 786, 922, 485, 195, 158, 629, 109, 871, 821, 25, 799, 195, 627, 659, 959, 862, 418, 488, 308, 347, 557, 927, 389, 100, 250, 991, 39, 546, 948, 593, 458, 607, 591, 984, 663, 799, 892, 769, 287, 353, 10, 578, 957, 680, 801, 787, 53, 529, 268, 161, 775, 458, 632, 126, 208, 801, 107, 894, 282, 658, 400, 821, 277, 182, 169, 727, 126, 707, 548, 205, 64, 331, 58, 899, 925, 244, 265, 329, 803, 459, 174, 642, 163, 981, 430, 428, 742, 39, 871, 25, 504, 899, 168, 342, 722, 570, 808, 172, 421, 993, 466, 803, 49, 672, 706, 490, 134, 351, 466, 396, 620, 485, 826, 165, 666, 257, 648, 423, 329, 149, 70, 151, 430, 550, 378, 729, 455, 137, 540, 142, 643, 72, 788, 50, 444, 810, 478, 577, 752, 306, 699, 54, 732, 235, 871, 278, 267, 493, 581, 137, 705, 489, 106, 26, 649, 573, 909, 525, 1000, 423, 66, 45, 974, 600, 775, 798, 905, 340, 282, 317, 595, 527, 297, 332, 925, 270, 512, 818, 52, 419, 252, 686, 201, 731, 792, 312, 231, 365, 502, 506, 249, 713, 70, 632, 272, 497, 963, 317, 18, 268, 35, 777, 774, 708, 151, 69, 150, 69, 120, 492, 123, 250, 873, 881, 523, 120, 469, 941, 355, 40, 382, 941, 752, 555, 713, 735, 220, 319, 114, 718, 214, 991, 524, 643, 101, 638, 916, 170, 189, 556, 762, 60, 850, 588, 781, 454, 633, 377, 137, 632, 654, 430, 258, 427, 284, 341, 686, 751, 55, 290, 511, 637, 358, 211, 616, 52, 181, 902, 662, 23, 131, 167, 930, 446, 886, 571, 134, 938, 249, 879, 200, 151, 13, 249, 172, 849, 747, 688, 209, 479, 428, 673, 879, 257, 609, 567, 87, 939, 914, 981, 492, 517, 625, 426, 646, 901, 27, 85, 496, 876, 108, 396, 866, 209, 282, 801, 62, 797, 218, 181, 784, 1000, 505, 121, 114, 217, 296, 125, 491, 713, 329, 756, 266, 530, 969, 527, 475, 712, 64, 203, 984, 136, 477, 715, 867, 389, 363, 783, 313, 958, 376, 287, 25, 339, 250, 262, 544, 860, 17, 942, 583, 568, 95, 380, 885, 900, 77, 79, 282, 640, 927, 165, 515, 487, 250, 648, 449, 279, 33, 648, 360, 553, 660, 524, 105, 932, 111, 377, 929, 642, 648, 251, 679, 89, 533, 119, 815, 142, 773, 758, 295, 256, 412, 917, 526, 504, 358, 225, 798, 850, 121, 576, 30, 813, 406, 415, 475, 646, 761, 298, 791, 591, 879, 365, 133, 176, 976, 550, 519, 346, 743, 262, 366, 160, 947, 739, 422, 694, 762, 163, 541, 503, 554, 501, 276, 558, 146, 771, 450, 396, 441, 38, 875, 649, 959, 107, 463, 339, 117, 743, 411, 857, 405, 21, 894, 559, 468, 168, 256, 256, 553, 758, 334, 392, 113, 482, 710, 860, 81, 946, 784, 447, 274, 935, 312, 870, 358, 478, 968, 623, 812, 933, 334, 248, 125, 736, 125, 128, 921, 539, 355, 22, 612, 638, 32, 69, 360, 391, 784, 682, 620, 570, 780, 104, 593, 907, 666, 15, 594, 139, 896, 420, 738, 925, 681, 250, 823, 361, 874, 196, 329, 168, 292, 114, 393, 850, 194, 558, 191, 770, 907, 565, 841, 1000, 467, 887, 361, 121, 669, 902, 670, 810, 924, 45, 507, 471, 969, 276, 272, 440, 176, 615, 33, 942, 932, 814, 65, 602, 720, 811, 554, 648, 237, 806, 791, 406, 916, 600, 570, 494, 87, 292, 369, 413, 256, 593, 586, 752, 826, 329, 636, 598, 728, 264, 576, 459, 120, 242, 298, 268, 483, 996, 266, 469, 430, 443, 17, 453, 362, 912, 39, 255, 274, 423, 323, 234, 817, 381, 596, 545, 917, 296, 93, 780, 539, 372, 624, 797, 128, 746, 304, 268, 422, 288, 927, 422, 855, 734, 792, 792, 22, 15, 248, 338, 677, 390, 641, 200, 321, 193, 626, 892, 496, 481, 770, 630, 225, 166, 435, 892, 83, 395, 584, 677, 896, 769, 749, 232, 336, 626, 685, 387, 363, 508, 236, 206, 564, 257, 205, 901, 699, 206, 194, 769, 290, 152, 507, 519, 885, 823, 529, 186, 577, 760, 213, 823, 679, 804, 247, 956, 793, 522, 696, 121, 336, 291, 947, 431, 537, 81, 221, 94, 132, 393, 113, 896, 430, 76, 949, 569, 194, 123, 114, 217, 636, 510, 136, 339, 965, 166, 346, 981, 55, 727, 673, 988, 246, 518, 32, 734, 792, 506, 57, 859, 425, 120, 107, 171, 189, 504, 754, 186, 748, 564, 993, 656, 305, 712, 898, 322, 538, 829, 983, 846, 18, 197, 888, 893, 658, 635, 91, 735, 446, 505, 221, 437, 846, 934, 690, 523, 847, 592, 389, 929, 170, 157, 679, 264, 648, 276, 288, 793, 491, 961, 301, 801, 734, 391, 980, 142, 403, 857, 146, 152, 981, 633, 666, 496, 739, 829, 43, 913, 635, 368, 134, 460, 947, 855, 63, 613, 901, 738, 495, 979, 866, 513, 988, 540, 283, 507, 634, 747, 573, 853, 23, 400, 394, 565, 50, 475, 443, 844, 114, 918, 55, 701, 732, 873, 812, 633, 733, 890, 723, 811, 756, 550, 666, 41, 444, 149, 261, 775, 718, 895, 531, 448, 159, 152, 732, 514, 382, 927, 558, 475, 675, 889, 344, 200, 644, 263, 494, 977, 730, 103, 204, 17, 13, 15, 496, 462, 433, 461, 864, 697, 719, 807, 994, 146, 787, 439, 260, 333, 657, 283, 278, 428, 303, 323, 512, 715, 189, 674, 820, 476, 955, 468, 808, 619, 330, 360, 632, 965, 719, 226, 720, 766, 234, 104, 764, 458, 24, 672, 294, 685, 812, 227, 586, 872, 601, 980, 61, 670, 628, 236, 302, 651, 214, 479, 554, 574, 340, 926, 229, 119, 927, 464, 365, 219, 507, 406, 913, 356, 691, 837, 55, 673, 931, 338, 674, 953, 80, 991, 992, 792, 425, 807, 222, 885, 225, 568, 22, 224, 94, 582, 392, 70, 356, 529, 267, 162, 395, 708, 368, 842, 259, 441, 16, 977, 226, 654, 850, 409, 840, 636, 264, 734, 608, 900, 116, 866, 662, 354, 892, 711, 16, 998, 313, 636, 417, 701, 197, 199, 256, 382, 325, 580, 399, 357, 867, 479, 982, 647, 338, 213, 832, 34, 128, 657, 360, 119, 659, 732, 688, 101, 766, 352, 710, 367, 280, 662, 903, 45, 393, 61, 908, 996, 351, 927, 431, 868, 244, 336, 249, 433, 860, 313, 922, 250, 544, 975, 68, 700, 899, 708, 992, 704, 446, 464, 29, 372, 795, 581, 961, 291, 158, 230, 769, 856, 857, 752, 458, 614, 419, 977, 918, 397, 515, 159, 946, 590, 633, 927, 595, 22, 820, 580, 136, 218, 583, 190, 725, 638, 491, 990, 951, 380, 787, 408, 710, 729, 615, 507, 461, 104, 162, 605, 811, 369, 205, 460, 759, 271, 785, 206, 676, 104, 910, 890, 199, 106, 943, 581, 237, 85, 982, 116, 894, 396, 574, 902, 390, 659, 877, 195, 353, 332, 116, 140, 1000, 890, 876, 280, 257, 150, 985, 656, 679, 192, 419, 477, 819, 273, 71, 653, 185, 477, 190, 660, 593, 587, 117, 435, 867, 235, 954, 912, 514, 313, 464, 850, 789, 440, 685, 152, 731, 906, 629, 218, 62, 694, 92, 988, 291, 467, 139, 645, 234, 184, 599, 410, 41, 130, 83, 673, 53, 461, 725, 591, 839, 612, 79, 530, 25, 574, 148, 62, 145, 524, 563, 251, 374, 264, 318, 687, 273, 829, 858, 981, 992, 214, 525, 909, 263, 968, 316, 159, 22, 373, 624, 980, 388, 874, 954, 433, 845, 816, 75, 797, 916, 601, 930, 885, 335, 555, 274, 976, 340, 853, 354, 439, 699, 475, 801, 287, 166, 517, 135, 49, 734, 421, 682, 514, 275, 730, 958, 130, 878, 88, 579, 972, 279, 307, 384, 567, 541, 701, 68, 548, 462, 516, 707, 306, 383, 737, 743, 32, 663, 203, 187, 587, 104, 436, 649, 340, 360, 573, 422, 52, 150, 812, 245, 747, 533, 841, 345, 332, 553, 405, 784, 620, 56, 406, 936, 879, 12, 203, 352, 633, 208, 854, 814, 81, 430, 524, 659, 332, 262, 201, 945, 839, 686, 517, 732, 455, 886, 929, 984, 712, 326, 28, 976, 114, 136, 683, 202, 836, 123, 405, 547, 728, 295, 875, 228, 758, 416, 580, 759, 73, 393, 926, 364, 626, 347, 101, 635, 749, 113, 444, 719, 892, 807, 240, 522, 886, 544, 290, 115, 136, 110, 985, 896, 64, 91, 874, 160, 986, 136, 535, 654, 56, 779, 271, 704, 136, 950, 105, 102, 292, 179, 128, 902, 434, 606, 676, 177, 873, 173, 792, 371, 744, 916, 591, 757, 847, 803, 311, 913, 473, 906, 250, 302, 577, 236, 541, 499, 324, 565, 199, 621, 219, 469, 363, 870, 662, 856, 579, 201, 168, 44, 771, 391, 484, 197, 267, 283, 184, 229, 901, 381, 548, 40, 38, 43, 372, 851, 458, 752, 228, 719, 922, 816, 834, 333, 134, 584, 516, 153, 955, 76, 947, 432, 545, 482, 530, 810, 698, 174, 593, 303, 705, 136, 475, 181, 621, 813, 442, 335, 338, 892, 477, 117, 559, 541, 558, 947, 370, 720, 664, 636, 685, 316, 431, 503, 412, 809, 913, 550, 858, 949, 140, 708, 737, 611, 334, 78, 869, 774, 234, 145, 687, 683, 344, 615, 899, 377, 234, 445, 29, 294, 928, 636, 516, 555, 360, 738, 159, 879, 975, 294, 693, 399, 932, 96, 459, 597, 824, 857, 903, 980, 775, 795, 240, 901, 403, 665, 359, 579, 129, 847, 940, 305, 185, 969, 823, 666, 33, 887, 671, 386, 855, 968, 516, 384, 560, 394, 366, 785, 586, 637, 954, 223, 947, 314, 298, 800, 729, 669, 765, 865, 319, 250, 706, 732, 651, 941, 497, 638, 228, 300, 395, 927, 214, 162, 913, 220, 532, 557, 15, 190, 234, 553, 486, 337, 937, 422, 789, 640, 409, 981, 636, 210, 266, 402, 702, 571, 332, 335, 929, 753, 943, 613, 651, 152, 444, 504, 654, 897, 954, 866, 75, 724, 775, 99, 742, 741, 548, 811, 884, 167, 532, 265, 549, 660, 347, 906, 604, 355, 782, 504, 789, 562, 265, 899, 832, 734, 736, 978, 664, 563, 599, 74, 55, 72, 798, 572, 164, 334, 633, 605, 697, 198, 324, 199, 930, 734, 208, 76, 159, 521, 710, 38, 203, 273, 430, 713, 634, 602, 374, 602, 994, 469, 332, 247, 632, 407, 586, 729, 172, 701, 108, 64, 134, 591, 615, 910, 634, 944, 874, 383, 259, 430, 944, 869, 554, 914, 90, 142, 958, 582, 24, 463, 370, 426, 941, 284, 419, 404, 155, 767, 743, 618, 116, 52, 398, 60, 688, 510, 959, 560, 487, 822, 612, 407, 258, 641, 176, 282, 149, 406, 774, 748, 314, 946, 793, 223, 246, 683, 34, 34, 483, 635, 608, 917, 827, 124, 746, 206, 700, 852, 286, 557, 831, 775, 253, 380, 195, 971, 12, 925, 125, 336, 134, 216, 721, 109, 462, 988, 969, 450, 25, 619, 174, 649, 252, 640, 885, 778, 884, 104, 329, 951, 105, 171, 429, 471, 703, 243, 909, 533, 979, 817, 80, 651, 365, 367, 755, 160, 24, 556, 658, 272, 578, 374, 94, 900, 32, 514, 692, 189, 898, 970, 783, 117, 485, 442, 58, 655, 499, 911, 56, 584, 210, 579, 826, 123, 856, 255, 924, 225, 199, 925, 588, 242, 629, 145, 86, 877, 155, 1000, 600, 647, 71, 234, 410, 630, 655, 107, 304, 543, 39, 736, 827, 117, 747, 258, 935, 86, 825, 820, 745, 170, 599, 599, 807, 155, 889, 942, 258, 349, 473, 636, 72, 597, 953, 767, 422, 298, 303, 800, 797, 700, 272, 728, 225, 55, 598, 622, 411, 589, 879, 507, 236, 307, 46, 166, 909, 600, 261, 716, 239, 652, 294, 678, 171, 18, 545, 163, 580, 41, 549, 393, 508, 283, 337, 433, 120, 186, 498, 476, 858, 229, 272, 97, 547, 834, 387, 540, 537, 940, 813, 815, 54, 149, 675, 407, 89, 370, 643, 495, 951, 13, 445, 315, 295, 569, 571, 600, 690, 950, 746, 690, 783, 125, 882, 631, 528, 464, 567, 712, 408, 60, 56, 101, 717, 913, 734, 38, 923, 82, 393, 482, 26, 415, 845, 119, 44, 935, 39, 764, 778, 703, 400];
weights = [26, 68, 77, 91, 16, 18, 92, 66, 22, 42, 92, 55, 27, 91, 81, 79, 38, 93, 32, 29, 46, 27, 82, 53, 57, 93, 13, 24, 15, 33, 68, 79, 48, 99, 94, 38, 67, 100, 21, 88, 71, 38, 28, 84, 89, 79, 77, 53, 63, 87, 37, 42, 27, 45, 39, 74, 39, 63, 27, 22, 31, 32, 86, 16, 29, 30, 35, 79, 22, 25, 21, 70, 47, 89, 65, 16, 99, 34, 92, 79, 73, 31, 33, 72, 54, 27, 10, 34, 53, 93, 85, 71, 24, 99, 54, 79, 11, 35, 68, 24, 82, 87, 46, 60, 31, 16, 45, 37, 76, 29, 73, 86, 19, 67, 39, 55, 75, 54, 90, 55, 49, 51, 44, 22, 58, 17, 16, 55, 18, 26, 80, 72, 79, 15, 58, 82, 29, 21, 11, 59, 96, 57, 90, 74, 40, 21, 36, 59, 88, 58, 95, 78, 12, 28, 54, 71, 85, 67, 26, 91, 52, 82, 93, 51, 65, 24, 80, 21, 89, 88, 65, 47, 24, 68, 88, 33, 46, 78, 62, 71, 80, 27, 43, 80, 96, 11, 92, 58, 70, 63, 38, 44, 95, 46, 91, 51, 95, 62, 73, 98, 45, 82, 30, 47, 23, 30, 89, 53, 78, 30, 33, 61, 34, 77, 78, 79, 32, 72, 68, 56, 57, 71, 38, 74, 16, 65, 25, 62, 76, 50, 25, 74, 21, 99, 83, 93, 37, 70, 35, 14, 58, 51, 94, 38, 26, 42, 72, 37, 62, 11, 23, 93, 85, 43, 75, 31, 43, 30, 60, 85, 39, 77, 35, 56, 53, 39, 45, 76, 100, 42, 57, 30, 76, 55, 47, 54, 78, 81, 30, 35, 57, 61, 92, 89, 71, 53, 84, 41, 55, 25, 73, 47, 42, 64, 80, 29, 21, 30, 31, 99, 49, 24, 23, 75, 53, 44, 60, 42, 50, 73, 23, 93, 23, 11, 70, 81, 78, 70, 61, 18, 88, 85, 100, 94, 86, 89, 27, 90, 45, 74, 10, 10, 91, 45, 63, 10, 88, 94, 66, 75, 10, 40, 84, 97, 28, 52, 65, 66, 73, 10, 100, 69, 54, 37, 55, 43, 99, 55, 89, 62, 41, 30, 26, 77, 10, 70, 50, 99, 44, 98, 93, 86, 68, 46, 37, 56, 46, 58, 89, 52, 51, 41, 92, 35, 59, 99, 76, 14, 39, 48, 20, 47, 32, 82, 31, 57, 94, 30, 24, 98, 43, 70, 97, 90, 25, 64, 69, 74, 33, 37, 66, 29, 76, 46, 71, 11, 93, 39, 50, 90, 95, 17, 85, 88, 98, 27, 41, 78, 25, 65, 73, 15, 97, 79, 70, 45, 68, 34, 52, 57, 31, 80, 21, 43, 93, 84, 53, 43, 80, 30, 53, 15, 95, 67, 39, 65, 34, 64, 69, 52, 21, 77, 93, 31, 15, 16, 40, 69, 48, 16, 89, 35, 86, 45, 98, 99, 91, 55, 44, 17, 94, 36, 41, 66, 61, 40, 20, 62, 24, 81, 31, 91, 20, 85, 67, 93, 47, 10, 66, 85, 20, 85, 97, 51, 66, 65, 99, 61, 11, 35, 89, 34, 28, 35, 10, 10, 35, 53, 93, 78, 20, 94, 28, 100, 37, 57, 72, 63, 11, 72, 12, 39, 17, 39, 57, 50, 26, 73, 30, 73, 31, 40, 68, 94, 93, 81, 71, 47, 81, 70, 72, 67, 98, 46, 19, 46, 47, 70, 98, 60, 17, 93, 33, 31, 39, 95, 68, 48, 71, 49, 37, 49, 49, 65, 92, 26, 59, 67, 86, 16, 69, 85, 29, 12, 64, 60, 39, 64, 30, 10, 35, 45, 72, 70, 91, 31, 29, 69, 71, 28, 26, 93, 60, 44, 73, 10, 44, 54, 20, 72, 30, 72, 17, 48, 88, 81, 62, 64, 95, 77, 41, 94, 70, 94, 95, 73, 39, 85, 67, 79, 89, 77, 38, 39, 14, 39, 96, 47, 66, 10, 40, 37, 42, 72, 86, 32, 37, 72, 27, 95, 89, 98, 79, 20, 32, 59, 25, 13, 53, 64, 15, 15, 36, 95, 77, 54, 16, 61, 74, 58, 44, 42, 38, 73, 99, 56, 52, 97, 26, 65, 54, 40, 12, 74, 59, 49, 51, 12, 74, 70, 61, 83, 12, 13, 20, 38, 34, 54, 63, 21, 35, 100, 89, 18, 20, 32, 16, 79, 93, 38, 18, 78, 53, 58, 100, 56, 96, 69, 97, 96, 38, 32, 70, 33, 79, 84, 41, 61, 37, 33, 19, 45, 81, 33, 76, 27, 91, 41, 45, 88, 52, 96, 16, 87, 66, 94, 80, 42, 10, 28, 46, 48, 98, 93, 17, 67, 93, 54, 95, 20, 62, 73, 56, 24, 62, 86, 39, 78, 35, 18, 61, 29, 88, 53, 57, 78, 87, 27, 73, 45, 21, 69, 26, 97, 30, 89, 69, 22, 85, 88, 41, 52, 84, 54, 14, 34, 12, 92, 85, 94, 95, 22, 70, 93, 22, 74, 72, 42, 57, 16, 51, 93, 41, 34, 50, 68, 16, 79, 17, 58, 51, 27, 98, 80, 49, 12, 48, 31, 23, 33, 43, 16, 54, 67, 14, 83, 71, 23, 52, 74, 67, 13, 28, 89, 75, 25, 27, 100, 41, 75, 87, 54, 75, 40, 46, 10, 88, 71, 83, 45, 21, 95, 76, 91, 43, 10, 43, 69, 74, 70, 29, 86, 34, 69, 19, 93, 32, 83, 28, 14, 40, 36, 64, 58, 37, 66, 58, 40, 85, 18, 14, 87, 93, 28, 73, 24, 50, 72, 77, 26, 36, 50, 47, 42, 83, 48, 11, 66, 76, 38, 12, 89, 49, 25, 22, 88, 87, 62, 35, 64, 99, 41, 51, 89, 50, 54, 37, 18, 10, 91, 71, 73, 39, 69, 44, 66, 30, 70, 11, 87, 43, 32, 48, 33, 31, 41, 91, 28, 98, 94, 94, 56, 24, 40, 90, 87, 81, 16, 33, 79, 75, 78, 72, 70, 63, 30, 61, 53, 38, 53, 67, 67, 91, 69, 80, 30, 87, 60, 46, 48, 66, 40, 69, 86, 93, 42, 65, 43, 33, 81, 20, 31, 18, 50, 30, 32, 33, 38, 62, 49, 63, 82, 29, 13, 11, 99, 58, 11, 68, 11, 47, 59, 92, 74, 83, 65, 54, 10, 25, 69, 55, 86, 33, 85, 32, 15, 92, 47, 25, 61, 94, 98, 40, 81, 23, 35, 33, 47, 92, 64, 17, 91, 15, 80, 52, 47, 54, 57, 21, 36, 72, 37, 29, 65, 43, 63, 89, 85, 93, 61, 63, 91, 76, 96, 37, 15, 70, 20, 41, 20, 43, 90, 27, 32, 87, 25, 40, 20, 49, 14, 23, 55, 27, 32, 49, 51, 57, 72, 28, 61, 26, 35, 87, 90, 37, 92, 59, 76, 100, 27, 70, 68, 98, 34, 60, 24, 83, 96, 90, 16, 68, 31, 70, 43, 22, 83, 23, 58, 70, 67, 42, 40, 98, 34, 23, 74, 91, 36, 37, 50, 60, 46, 68, 21, 56, 95, 64, 77, 91, 76, 70, 29, 43, 44, 12, 26, 10, 99, 47, 16, 78, 62, 77, 31, 63, 74, 25, 40, 81, 64, 93, 21, 80, 29, 64, 71, 72, 55, 65, 67, 76, 99, 96, 77, 12, 12, 64, 19, 27, 20, 65, 72, 67, 53, 77, 17, 84, 39, 100, 90, 53, 51, 99, 57, 79, 40, 68, 57, 24, 72, 18, 51, 97, 43, 30, 10, 98, 49, 77, 16, 23, 54, 36, 88, 33, 92, 93, 81, 93, 51, 17, 21, 29, 24, 54, 13, 75, 69, 23, 50, 57, 11, 25, 26, 84, 47, 98, 54, 23, 64, 10, 84, 61, 50, 37, 75, 88, 39, 72, 11, 64, 11, 32, 18, 30, 26, 33, 92, 34, 35, 44, 35, 38, 58, 79, 59, 70, 31, 97, 54, 57, 66, 17, 13, 13, 34, 57, 38, 36, 94, 21, 22, 94, 44, 46, 84, 94, 34, 20, 91, 52, 60, 61, 92, 12, 71, 84, 13, 35, 30, 22, 91, 44, 10, 92, 54, 95, 43, 54, 46, 26, 20, 44, 38, 90, 81, 28, 50, 75, 76, 96, 15, 67, 34, 70, 79, 81, 98, 96, 38, 48, 78, 100, 24, 67, 70, 92, 58, 88, 32, 21, 66, 57, 40, 49, 32, 98, 22, 87, 77, 77, 15, 77, 15, 89, 94, 45, 94, 35, 51, 36, 62, 25, 25, 76, 50, 51, 65, 58, 83, 67, 68, 48, 83, 13, 39, 55, 42, 41, 41, 80, 40, 34, 33, 82, 34, 46, 21, 86, 43, 57, 80, 55, 100, 55, 53, 42, 23, 35, 55, 42, 45, 62, 59, 46, 62, 29, 85, 19, 59, 82, 61, 23, 34, 19, 68, 19, 78, 29, 66, 22, 86, 98, 36, 43, 81, 78, 90, 38, 46, 83, 32, 19, 100, 81, 96, 86, 35, 20, 12, 98, 46, 61, 16, 45, 72, 53, 80, 77, 87, 72, 37, 27, 81, 16, 82, 76, 90, 88, 72, 12, 86, 36, 68, 38, 30, 26, 85, 67, 65, 45, 84, 54, 50, 29, 79, 67, 24, 43, 91, 54, 77, 96, 20, 40, 75, 12, 86, 20, 41, 91, 10, 92, 49, 56, 81, 74, 82, 10, 27, 64, 71, 62, 17, 24, 37, 98, 55, 59, 39, 19, 86, 71, 53, 80, 25, 38, 17, 50, 23, 25, 30, 11, 40, 58, 43, 28, 57, 68, 29, 81, 74, 27, 53, 89, 80, 63, 15, 44, 41, 33, 68, 92, 67, 18, 12, 69, 55, 71, 93, 43, 39, 87, 19, 71, 69, 26, 49, 97, 79, 97, 65, 30, 88, 76, 31, 94, 88, 86, 46, 87, 16, 62, 60, 16, 78, 29, 24, 14, 46, 31, 16, 38, 86, 87, 19, 98, 57, 72, 98, 85, 61, 83, 50, 59, 91, 32, 22, 64, 75, 81, 96, 62, 41, 23, 87, 64, 79, 69, 62, 76, 79, 47, 61, 91, 71, 77, 88, 50, 12, 43, 75, 10, 62, 76, 55, 26, 96, 54, 95, 89, 33, 35, 21, 97, 93, 58, 58, 79, 92, 60, 72, 77, 70, 63, 92, 72, 67, 18, 30, 22, 42, 28, 91, 75, 10, 16, 52, 50, 75, 67, 78, 81, 78, 75, 12, 83, 65, 94, 87, 47, 48, 31, 25, 96, 68, 57, 75, 19, 71, 15, 36, 15, 97, 30, 51, 88, 65, 35, 67, 24, 20, 34, 19, 74, 10, 96, 30, 86, 68, 95, 23, 43, 26, 40, 71, 84, 10, 40, 46, 64, 38, 77, 61, 55, 83, 77, 45, 98, 76, 41, 47, 75, 59, 86, 75, 72, 17, 21, 35, 86, 55, 42, 91, 14, 31, 95, 48, 36, 84, 87, 28, 36, 89, 16, 78, 56, 33, 17, 36, 97, 41, 25, 40, 81, 79, 85, 87, 68, 13, 27, 46, 96, 41, 72, 62, 94, 19, 54, 10, 75, 64, 47, 85, 10, 11, 82, 85, 54, 47, 27, 22, 31, 38, 91, 16, 83, 32, 65, 84, 31, 15, 59, 68, 70, 19, 55, 61, 67, 34, 37, 52, 22, 93, 29, 72, 97, 18, 19, 29, 99, 44, 26, 41, 64, 16, 84, 84, 73, 78, 92, 55, 64, 17, 36, 70, 26, 32, 53, 33, 79, 91, 28, 15, 32, 44, 96, 27, 59, 55, 52, 82, 46, 59, 11, 47, 14, 63, 62, 100, 50, 52, 87, 14, 20, 22, 63, 59, 78, 78, 56, 75, 82, 71, 24, 65, 18, 42, 73, 71, 10, 64, 12, 24, 24, 14, 72, 78, 96, 20, 91, 14, 31, 74, 13, 33, 12, 84, 20, 97, 81, 88, 60, 81, 41, 49, 98, 56, 42, 87, 41, 35, 71, 56, 75, 100, 30, 88, 91, 45, 49, 13, 42, 29, 43, 47, 27, 49, 98, 80, 76, 92, 27, 34, 100, 68, 96, 94, 28, 85, 92, 14, 16, 49, 34, 39, 11, 25, 68, 34, 66, 48, 36, 18, 49, 62, 54, 49, 73, 41, 75, 68, 66, 37, 50, 21, 46, 12, 60, 10, 67, 25, 58, 94, 20, 14, 97, 54, 54, 56, 61, 90, 10, 76, 21, 97, 30, 65, 47, 29, 18, 100, 73, 45, 58, 61, 55, 19, 75, 11, 11, 51, 80, 37, 75, 63, 29, 20, 80, 14, 75, 80, 43, 92, 34, 21, 79, 17, 21, 74, 42, 38, 14, 61, 15, 63, 69, 99, 36, 85, 47, 32, 57, 52, 95, 20, 39, 58, 48, 33, 45, 43, 11, 92, 34, 21, 44, 37, 62, 11, 25, 89, 71, 53, 70, 10, 30, 65, 99, 47, 92, 98, 69, 28, 76, 39, 13, 63, 23, 80, 62, 23, 79, 40, 64, 72, 27, 24, 11, 49, 80, 74, 33, 38, 44, 63, 57, 43, 91, 29, 30, 13, 27, 74, 11, 40, 60, 72, 25, 88, 37, 48, 60, 46, 62, 26, 90, 87, 38, 71, 10, 21, 92, 29, 61, 42, 44, 85, 23, 32, 83, 78, 72, 86, 64, 98, 16, 36, 67, 44, 50, 89, 22, 25, 63, 94, 94, 94, 68, 47, 83, 52, 99, 98, 90, 58, 60, 69, 80, 58, 77, 61, 67, 25, 76, 100, 91, 66, 76, 34, 55, 89, 22, 63, 23, 24, 78, 66, 100, 90, 66, 57, 52, 100, 76, 52, 42, 17, 44, 10, 88, 88, 87, 100, 64, 52, 15, 17, 92, 37, 55, 31, 45, 30, 90, 92, 20, 71, 97, 95, 97, 70, 77, 36, 49, 83, 60, 59, 17, 50, 76, 83, 96, 34, 62, 80, 31, 13, 95, 42, 40, 58, 14, 52, 48, 80, 37, 92, 22, 20, 83, 25, 21, 35, 34, 55, 64, 44, 44, 69, 20, 71, 36, 71, 81, 24, 86, 10, 90, 47, 54, 70, 30, 49, 100, 30, 34, 17, 94, 59, 51, 89, 82, 20, 65, 81, 93, 67, 15, 12, 55, 49, 52, 23, 46, 47, 67, 21, 49, 13, 15, 59, 38, 11, 45, 64, 55, 63, 75, 35, 71, 36, 53, 53, 32, 87, 76, 86, 22, 80, 58, 30, 89, 13, 61, 57, 45, 47, 95, 28, 99, 68, 58, 66, 65, 97, 66, 75, 64, 24, 19, 12, 70, 19, 59, 65, 61, 29, 96, 99, 92, 33, 80, 22, 88, 74, 43, 57, 62, 76, 66, 96, 64, 36, 33, 82, 52, 55, 78, 88, 52, 92, 33, 26, 38, 51, 22, 92, 91, 10, 44, 85, 65, 24, 89, 44, 12, 16, 94, 78, 15, 17, 44, 28, 57, 39, 87, 85, 62, 79, 55, 23, 48, 57, 95, 86, 91, 12, 63, 22, 24, 29, 22, 91, 80, 32, 31, 24, 64, 79, 84, 48, 59, 79, 38, 14, 28, 60, 85, 78, 35, 26, 36, 36, 25, 36, 16, 80, 55, 30, 85, 11, 47, 14, 97, 64, 52, 37, 56, 98, 40, 57, 53, 80, 13, 36, 34, 37, 82, 11, 34, 92, 70, 85, 52, 87, 72, 28, 10, 44, 57, 78, 68, 29, 42, 29, 76, 20, 77, 66, 63, 62, 82, 29, 93, 86, 52, 41, 49, 44, 85, 10, 92, 18, 19, 42, 75, 39, 72, 28, 15, 31, 61, 27, 76, 95, 13, 35, 52, 71, 84, 51, 43, 23, 35, 31, 93, 76, 16, 95, 38, 55, 73, 76, 95, 84, 97, 80, 44, 24, 17, 17, 65, 74, 29, 64, 72, 89, 32, 93, 54, 28, 26, 62, 60, 46, 16, 31, 32, 100, 81, 55, 45, 95, 12, 62, 88, 82, 13, 23, 52, 90, 75, 32, 52, 38, 19, 69, 36, 62, 35, 20, 44, 66, 28, 87, 15, 85, 34, 74, 13, 52, 27, 93, 83, 39, 53, 36, 30, 75, 21, 75, 12, 100, 65, 86, 24, 13, 94, 44, 41, 43, 12, 10, 41, 13, 43, 58, 50, 31, 48, 76, 42, 87, 51, 44, 47, 68, 30, 15, 58, 95, 51, 25, 32, 21, 89, 28, 83, 25, 52, 85, 32, 57, 45, 86, 25, 14, 62, 26, 36, 81, 46, 99, 49, 38, 47, 79, 19, 78, 86, 92, 86, 72, 46, 84, 17, 66, 26, 92, 99, 15, 30, 95, 24, 11, 31, 93, 49, 95, 29, 35, 37, 74, 49, 50, 69, 37, 61, 18, 96, 37, 42, 40, 10, 71, 70, 49, 39, 13, 89, 93, 94, 76, 60, 60, 100, 89, 64, 59, 50, 69, 50, 44, 51, 18, 21, 61, 19, 61, 95, 88, 76, 82, 20, 87, 84, 96, 47, 42, 30, 43, 43, 95, 45, 43, 17, 87, 20, 50, 61, 38, 86, 68, 72, 64, 52, 46, 11, 89, 62, 81, 28, 28, 16, 58, 52, 70, 17, 81, 80, 52, 25, 34, 24, 10, 35, 90, 27, 100, 16, 17, 37, 69, 32, 68, 92, 27, 64, 42, 14, 74, 71, 65, 72, 21, 55, 42, 25, 93, 53, 14, 51, 50, 73, 31, 92, 18, 75, 56, 25, 28, 92, 47, 45, 24, 49, 22, 72, 63, 63, 73, 47, 87, 65, 84, 59, 29, 27, 76, 11, 45, 48, 80, 33, 49, 40, 86, 10, 51, 95, 65, 29, 78, 44, 34, 51, 59, 52, 84, 20, 17, 74, 77, 33, 26, 99, 20, 13, 11, 63, 87, 28, 67, 40, 55, 21, 48, 70, 40, 64, 36, 84, 53, 11, 40, 81, 70, 10, 95, 74, 70, 98, 71, 33, 60, 12, 11, 18, 18, 37, 68, 80, 56, 50, 37, 50, 66, 100, 49, 72, 70, 84, 26, 15, 71, 38, 57, 81, 58, 22, 24, 44, 58, 32, 34, 60, 47, 17, 40, 61, 73, 63, 65, 55, 63, 70, 15, 16, 46, 57, 94, 18, 67, 67, 84, 97, 48, 17, 69, 65, 80, 64, 56, 74, 13, 12, 27, 93, 66, 22, 84, 44, 96, 99, 46, 41, 83, 18, 61, 22, 11, 76, 99, 91, 14, 65, 95, 14, 30, 32, 45, 84, 43, 74, 44, 21, 10, 77, 76, 62, 89, 25, 23, 89, 12, 77, 84, 88, 15, 84, 84, 77, 18, 49, 50, 12, 100, 79, 92, 31, 26, 52, 18, 78, 11, 31, 74, 97, 86, 62, 19, 33, 55, 45, 58, 75, 41, 29, 95, 89, 61, 62, 20, 23, 72, 95, 59, 58, 52, 53, 67, 85, 78, 84, 40, 98, 96, 96, 20, 22, 96, 42, 21, 67, 64, 77, 78, 62, 99, 86, 79, 62, 26, 33, 76, 30, 49, 16, 54, 92, 30, 42, 37, 12, 87, 95, 97, 46, 71, 42, 39, 36, 62, 93, 22, 93, 11, 12, 82, 44, 58, 76, 22, 52, 16, 73, 24, 42, 25, 88, 62, 81, 74, 19, 28, 15, 54, 90, 56, 49, 64, 22, 14, 85, 32, 56, 49, 99, 53, 24, 57, 17, 100, 20, 57, 91, 87, 58, 85, 28, 48, 78, 72, 95, 12, 43, 94, 89, 30, 21, 19, 19, 80, 84, 39, 49, 40, 86, 72, 41, 18, 10, 84, 26, 43, 56, 88, 16, 36, 48, 37, 96, 92, 23, 62, 96, 85, 44, 64, 26, 15, 23, 79, 94, 20, 59, 30, 94, 82, 38, 73, 42, 46, 27, 76, 81, 22, 14, 75, 96, 71, 89, 39, 71, 11, 17, 34, 22, 62, 75, 85, 95, 15, 79, 48, 70, 70, 20, 13, 76, 71, 88, 53, 56, 96, 69, 25, 67, 19, 13, 94, 93, 38, 38, 19, 14, 91, 75, 74, 62, 94, 98, 24, 83, 61, 22, 46, 66, 25, 61, 89, 57, 41, 53, 32, 80, 11, 21, 92, 14, 96, 40, 51, 35, 15, 52, 100, 22, 97, 76, 39, 51, 72, 71, 15, 81, 46, 23, 61, 82, 12, 48, 45, 40, 14, 87, 35, 88, 24, 39, 78, 88, 39, 75, 15, 19, 97, 60, 13, 36, 84, 76, 26, 80, 18, 94, 59, 40, 74, 32, 76, 76, 63, 51, 87, 78, 52, 26, 48, 44, 56, 51, 54, 36, 56, 58, 95, 42, 15, 71, 19, 99, 57, 75, 74, 96, 72, 82, 37, 58, 10, 75, 98, 49, 91, 36, 50, 21, 54, 25, 93, 48, 95, 69, 26, 79, 34, 30, 56, 41, 75, 19, 84, 63, 41, 60, 72, 77, 85, 37, 62, 21, 31, 41, 74, 79, 77, 33, 84, 69, 42, 41, 66, 25, 10, 46, 45, 19, 83, 81, 93, 75, 90, 47, 52, 19, 72, 43, 89, 55, 38, 43, 16, 82, 62, 86, 77, 58, 45, 74, 84, 80, 62, 16, 93, 72, 41, 82, 27, 78, 53, 36, 47, 94, 87, 21, 94, 98, 20, 81, 24, 95, 14, 83, 15, 25, 79, 88, 51, 23, 38, 10, 51, 63, 24, 29, 62, 50, 23, 10, 56, 28, 26, 70, 74, 93, 19, 54, 86, 20, 40, 38, 87, 86, 19, 40, 23, 40, 40, 26, 21, 69, 76, 93, 38, 93, 45, 78, 73, 42, 53, 53, 77, 30, 41, 39, 52, 41, 69, 10, 25, 64, 37, 86, 60, 90, 17, 66, 85, 17, 85, 35, 78, 13, 53, 93, 91, 92, 53, 72, 93, 59, 84, 37, 20, 71, 35, 64, 11, 23, 82, 96, 53, 81, 13, 32, 13, 30, 35, 59, 69, 56, 66, 68, 26, 46, 73, 48, 21, 88, 81, 84, 68, 24, 62, 78, 81, 93, 22, 34, 49, 58, 46, 61, 62, 18, 61, 72, 30, 61, 100, 95, 66, 56, 25, 64, 20, 75, 46, 13, 29, 74, 41, 21, 25, 94, 83, 46, 82, 65, 51, 55, 37, 82, 71, 13, 54, 22, 85, 49, 53, 90, 13, 81, 89, 100, 98, 46, 14, 52, 22, 17, 99, 26, 23, 65, 64, 75, 70, 73, 91, 27, 75, 13, 11, 40, 94, 85, 47, 86, 70, 61, 17, 77, 82, 66, 81, 40, 82, 68, 68, 52, 70, 50, 16, 53, 98, 69, 29, 61, 84, 78, 87, 78, 70, 76, 21, 28, 46, 59, 98, 74, 79, 41, 47, 82, 67, 14, 99, 67, 68, 42, 32, 32, 20, 76, 99, 52, 95, 53, 71, 30, 53, 10, 82, 80, 96, 91, 17, 74, 83, 51, 25, 95, 90, 96, 64, 99, 68, 90, 59, 14, 17, 36, 14, 12, 86, 79, 56, 59, 76, 95, 16, 73, 85, 36, 84, 98, 86, 93, 51, 40, 30, 77, 35, 12, 84, 49, 60, 48, 81, 17, 57, 23, 80, 30, 30, 68, 10, 38, 94, 65, 98, 19, 26, 49, 74, 48, 81, 85, 81, 71, 71, 79, 95, 20, 73, 47, 23, 44, 64, 69, 90, 63, 73, 82, 82, 44, 29, 77, 76, 59, 26, 92, 83, 21, 37, 61, 76, 79, 84, 64, 43, 84, 72, 19, 87, 82, 43, 32, 11, 33, 12, 16, 30, 95, 91, 68, 62, 78, 47, 28, 22, 98, 93, 81, 35, 56, 99, 17, 30, 60, 66, 94, 79, 56, 24, 43, 79, 96, 11, 47, 94, 53, 40, 47, 63, 25, 30, 13, 59, 51, 86, 92, 48, 70, 93, 36, 11, 43, 68, 68, 28, 75, 93, 54, 40, 41, 37, 43, 60, 44, 35, 100, 49, 65, 58, 53, 90, 83, 66, 90, 19, 66, 16, 50, 15, 92, 54, 39, 85, 74, 13, 31, 100, 18, 72, 76, 33, 25, 15, 61, 40, 15, 77, 67, 16, 65, 42, 14, 65, 64, 95, 75, 24, 99, 33, 62, 84, 13, 78, 67, 51, 77, 91, 75, 98, 19, 46, 26, 72, 41, 32, 57, 45, 20, 10, 11, 67, 53, 93, 92, 90, 87, 46, 43, 92, 23, 33, 33, 24, 74, 29, 12, 58, 72, 80, 65, 93, 77, 75, 13, 37, 47, 71, 86, 67, 45, 42, 48, 58, 45, 51, 63, 72, 15, 20, 73, 83, 18, 24, 25, 37, 45, 35, 56, 42, 60, 29, 87, 50, 84, 16, 51, 89, 74, 53, 30, 82, 57, 36, 33, 90, 83, 59, 87, 26, 20, 49, 21, 31, 67, 18, 78, 35, 68, 71, 67, 88, 28, 55, 66, 81, 39, 75, 95, 53, 100, 46, 94, 23, 43, 30, 50, 16, 31, 51, 65, 17, 77, 55, 99, 31, 96, 64, 34, 19, 67, 98, 67, 19, 31, 27, 86, 57, 70, 98, 11, 85, 15, 85, 34, 72, 15, 63, 21, 32, 97, 54, 54, 55, 90, 93, 100, 36, 73, 50, 73, 69, 95, 18, 48, 61, 22, 32, 48, 49, 10, 79, 18, 70, 39, 31, 89, 40, 23, 73, 42, 29, 71, 50, 98, 74, 44, 81, 90, 13, 75, 21, 24, 11, 35, 64, 95, 70, 98, 40, 28, 75, 74, 74, 28, 34, 15, 43, 20, 44, 22, 11, 94, 98, 33, 49, 88, 51, 53, 58, 77, 25, 20, 15, 23, 93, 16, 64, 53, 51, 65, 75, 40, 49, 12, 82, 47, 28, 73, 63, 69, 57, 24, 45, 89, 44, 45, 42, 100, 73, 38, 91, 93, 66, 13, 73, 91, 87, 59, 40, 59, 86, 27, 13, 19, 29, 44, 45, 36, 35, 85, 19, 58, 92, 73, 46, 39, 23, 58, 33, 83, 65, 69, 24, 66, 14, 30, 82, 57, 26, 65, 77, 73, 11, 75, 85, 81, 55, 43, 85, 16, 44, 100, 66, 46, 33, 73, 99, 99, 80, 87, 23, 92, 45, 29, 82, 72, 32, 49, 67, 18, 86, 65, 32, 40, 52, 55, 48, 79, 19, 82, 97, 74, 25, 12, 65, 88, 96, 54, 12, 62, 24, 37, 37, 73, 34, 30, 71, 94, 93, 53, 56, 34, 36, 46, 60, 95, 41, 88, 68, 67, 21, 17, 51, 13, 86, 52, 78, 55, 16, 94, 41, 12, 84, 56, 95, 61, 17, 98, 76, 27, 71, 63, 40, 73, 40, 76, 21, 78, 40, 89, 64, 98, 62, 91, 99, 25, 28, 32, 68, 36, 23, 17, 29, 76, 26, 74, 53, 74, 14, 16, 66, 92, 52, 40, 90, 32, 15, 74, 41, 100, 61, 82, 75, 34, 87, 88, 27, 18, 57, 54, 40, 57, 74, 11, 75, 93, 42, 16, 38, 81, 30, 67, 13, 24, 69, 36, 86, 73, 73, 73, 73, 89, 14, 95, 89, 55, 10, 98, 90, 75, 90, 90, 98, 62, 38, 12, 41, 67, 75, 31, 38, 100, 79, 56, 94, 84, 18, 24, 33, 38, 34, 87, 15, 79, 21, 34, 65, 80, 68, 76, 29, 51, 90, 26, 78, 50, 85, 18, 42, 42, 96, 97, 59, 61, 18, 52, 60, 83, 21, 79, 64, 81, 64, 72, 77, 70, 69, 59, 48, 26, 96, 26, 55, 56, 72, 44, 39, 32, 38, 72, 58, 68, 49, 58, 23, 73, 38, 42, 89, 14, 71, 58, 26, 49, 17, 100, 34, 22, 92, 34, 24, 78, 68, 22, 29, 24, 76, 22, 27, 50, 56, 53, 31, 12, 44, 27, 36, 81, 54, 46, 68, 27, 95, 72, 29, 48, 77, 36, 84, 60, 37, 98, 55, 86, 13, 41, 77, 85, 75, 12, 76, 49, 21, 14, 61, 74, 75, 13, 46, 67, 12, 76, 48, 47, 59, 37, 94, 48, 24, 70, 90, 88, 42, 71, 81, 33, 61, 50, 35, 45, 17, 100, 50, 57, 69, 11, 59, 63, 33, 74, 42, 56, 54, 69, 57, 56, 32, 55, 29, 44, 57, 88, 11, 65, 10, 96, 20, 24, 28, 54, 71, 70, 99, 29, 27, 84, 14, 94, 57, 39, 52, 88, 22, 11, 83, 87, 67, 26, 10, 22, 37, 96, 98, 42, 22, 70, 46, 86, 26, 40, 82, 54, 33, 42, 70, 91, 12, 49, 85, 100, 66, 100, 48, 39, 93, 52, 14, 88, 51, 76, 29, 67, 18, 48, 40, 39, 47, 66, 39, 99, 89, 17, 13, 76, 58, 57, 52, 13, 96, 10, 98, 35, 68, 78, 73, 17, 90, 53, 71, 16, 27, 11, 100, 43, 99, 11, 67, 48, 51, 21, 37, 35, 47, 38, 87, 80, 41, 27, 15, 63, 76, 43, 46, 64, 70, 77, 66, 100, 91, 82, 70, 63, 43, 53, 21, 71, 97, 51, 67, 52, 37, 92, 52, 29, 35, 42, 67, 66, 34, 45, 79, 46, 99, 70, 15, 44, 36, 83, 56, 62, 68, 54, 67, 29, 14, 15, 72, 82, 97, 55, 62, 23, 56, 77, 70, 56, 80, 36, 65, 39, 92, 55, 13, 50, 26, 23, 62, 87, 95, 26, 62, 21, 62, 35, 17, 14, 36, 56, 48, 58, 12, 57, 26, 10, 78, 52, 89, 45, 41, 70, 91, 54, 38, 46, 21, 44, 75, 11, 10, 57, 79, 74, 38, 31, 38, 78, 32, 48, 12, 54, 19, 87, 82, 78, 88, 99, 27, 78, 36, 18, 15, 98, 64, 72, 24, 26, 31, 73, 87, 26, 19, 50, 80, 42, 92, 13, 62, 100, 85, 21, 74, 99, 57, 72, 71, 17, 96, 49, 60, 38, 57, 42, 52, 100, 76, 52, 57, 86, 33, 87, 84, 28, 42, 43, 54, 32, 89, 44, 80, 99, 79, 80, 67, 81, 81, 78, 73, 58, 40, 75, 38, 99, 22, 69, 10, 48, 45, 98, 94, 85, 38, 88, 55, 90, 73, 37, 64, 67, 93, 67, 51, 93, 19, 97, 41, 68, 95, 58, 46, 14, 62, 19, 10, 30, 45, 38, 32, 54, 72, 23, 68, 55, 78, 18, 84, 31, 53, 50, 75, 100, 99, 51, 95, 83, 60, 92, 39, 50, 68, 52, 15, 66, 64, 39, 10, 38, 56, 83, 18, 80, 51, 47, 22, 95, 55, 80, 52, 44, 92, 74, 37, 34, 31, 74, 61, 30, 34, 43, 25, 71, 49, 14, 51, 57, 18, 99, 14, 32, 40, 77, 78, 87, 37, 47, 81, 25, 61, 33, 16, 39, 34, 53, 11, 81, 30, 44, 93, 66, 47, 20, 54, 20, 34, 78, 60, 63, 52, 38, 49, 65, 61, 75, 73, 82, 13, 100, 78, 56, 31, 10, 86, 34, 63, 38, 64, 29, 48, 89, 81, 37, 71, 75, 81, 94, 66, 21, 28, 89, 61, 38, 82, 89, 66, 27, 65, 51, 40, 46, 99, 91, 18, 10, 67, 33, 94, 75, 87, 89, 84, 21, 90, 21, 27, 38, 10, 54, 96, 83, 25, 83, 11, 86, 87, 96, 46, 57, 85, 31, 31, 23, 30, 39, 70, 16, 99, 85, 94, 79, 63, 45, 89, 100, 73, 12, 39, 95, 15, 28, 21, 94, 45, 100, 45, 17, 20, 54, 94, 54, 39, 74, 97, 28, 84, 16, 25, 43, 64, 33, 22, 33, 14, 60, 89, 63, 59, 12, 84, 40, 49, 12, 47, 68, 89, 94, 47, 39, 58, 48, 52, 44, 42, 21, 83, 35, 43, 95, 60, 40, 17, 89, 30, 67, 14, 88, 93, 34, 67, 74, 93, 56, 50, 42, 67, 97, 28, 10, 96, 88, 85, 60, 70, 25, 54, 46, 74, 40, 12, 92, 40, 72, 76, 86, 71, 86, 35, 58, 72, 10, 87, 77, 15, 29, 99, 21, 21, 66, 42, 71, 17, 59, 89, 49, 59, 79, 88, 21, 49, 63, 44, 19, 74, 63, 98, 60, 18, 37, 18, 77, 48, 61, 55, 45, 99, 88, 15, 64, 40, 16, 80, 45, 65, 54, 66, 88, 25, 67, 45, 33, 20, 56, 67, 59, 26, 13, 21, 47, 49, 16, 40, 83, 14, 26, 34, 75, 30, 81, 42, 96, 51, 12, 53, 13, 50, 25, 82, 11, 83, 36, 12, 55, 48, 43, 26, 63, 96, 20, 59, 23, 18, 68, 17, 79, 63, 15, 50, 32, 87, 82, 47, 68, 34, 33, 95, 15, 64, 71, 58, 41, 80, 30, 94, 11, 19, 87, 93, 47, 83, 83, 23, 12, 59, 10, 25, 27, 52, 81, 11, 93, 86, 92, 72, 75, 84, 96, 73, 31, 82, 76, 65, 89, 22, 87, 79, 92, 30, 97, 75, 57, 87, 79, 15, 32, 65, 12, 68, 65, 70, 74, 63, 39, 56, 99, 78, 73, 51, 97, 21, 77, 58, 72, 63, 40, 94, 88, 23, 38, 72, 35, 52, 11, 19, 62, 41, 40, 65, 23, 81, 67, 11, 59, 96, 11, 18, 37, 11, 26, 49, 71, 18, 53, 56, 90, 28, 84, 62, 100, 86, 68, 36, 37, 23, 89, 29, 39, 96, 55, 69, 91, 64, 61, 12, 85, 82, 49, 100, 100, 37, 25, 58, 92, 51, 59, 38, 32, 69, 84, 69, 60, 62, 87, 81, 68, 65, 76, 37, 94, 72, 85, 59, 67, 68, 21, 20, 41, 40, 83, 80, 62, 36, 51, 48, 91, 13, 11, 92, 20, 37, 85, 86, 96, 31, 50, 57, 64, 86, 11, 10, 24, 12, 38, 58, 80, 13, 59, 18, 34, 43, 91, 66, 43, 74, 68, 85, 12, 29, 88, 86, 36, 17, 51, 70, 48, 24, 64, 13, 47, 33, 86, 65, 30, 33, 71, 53, 74, 77, 94, 29, 14, 86, 63, 19, 13, 78, 36, 55, 89, 22, 54, 11, 56, 62, 95, 73, 97, 77, 97, 57, 78, 79, 35, 68, 50, 54, 19, 61, 21, 20, 12, 10, 67, 90, 16, 58, 29, 67, 35, 76, 31, 73, 17, 11, 29, 98, 32, 51, 40, 43, 83, 91, 48, 10, 42, 68, 11, 12, 97, 15, 47, 52, 72, 31, 62, 66, 83, 78, 85, 59, 60, 76, 57, 34, 44, 87, 60, 15, 48, 29, 82, 26, 54, 11, 88, 79, 91, 94, 24, 60, 33, 37, 87, 10, 27, 59, 32, 38, 70, 73, 26, 17, 69, 74, 82, 25, 90, 73, 23, 80, 35, 55, 42, 23, 38, 70, 67, 41, 25, 38, 47, 79, 38, 64, 61, 18, 24, 33, 92, 15, 64, 62, 61, 20, 81, 35, 47, 43, 25, 78, 74, 92, 31, 95, 33, 53, 34, 95, 15, 97, 98, 41, 22, 60, 64, 19, 77, 63, 59, 56, 32, 68, 95, 86, 58, 36, 63, 14, 81, 81, 95, 43, 73, 71, 72, 23, 49, 43, 75, 60, 71, 38, 83, 88, 58, 81, 89, 93, 52, 16, 66, 26, 63, 95, 50, 53, 51, 46, 97, 82, 15, 26, 79, 90, 14, 65, 65, 57, 92, 82, 42, 25, 83, 57, 20, 89, 25, 100, 82, 12, 11, 65, 74, 31, 69, 66, 28, 91, 52, 98, 28, 28, 46, 64, 13, 77, 62, 89, 91, 60, 54, 23, 90, 52, 78, 89, 47, 54, 38, 37, 97, 91, 59, 57, 15, 48, 76, 39, 62, 90, 99, 75, 59, 100, 89, 73, 16, 21, 94, 91, 75, 61, 34, 69, 19, 80, 75, 56, 85, 38, 78, 75, 63, 84, 55, 11, 56, 68, 51, 17, 20, 12, 63, 51, 23, 77, 76, 28, 36, 87, 14, 46, 38, 15, 20, 65, 49, 95, 77, 30, 89, 83, 46, 97, 55, 57, 24, 43, 25, 42, 26, 51, 53, 12, 50, 70, 74, 14, 45, 28, 35, 16, 80, 75, 96, 24, 27, 67, 17, 36, 56, 41, 13, 92, 69, 36, 68, 83, 62, 75, 45, 98, 18, 16, 22, 14, 23, 30, 50, 32, 73, 99, 57, 71, 94, 19, 49, 35, 24, 96, 20, 90, 96, 15, 91, 39, 45, 58, 26, 92, 56, 19, 78, 96, 20, 51, 75, 62, 27, 17, 40, 33, 25, 71, 22, 41, 17, 60, 42, 15, 64, 66, 79, 69, 33, 53, 61, 99, 21, 43, 19, 35, 73, 59, 33, 81, 87, 19, 63, 34, 73, 78, 45, 24, 47, 11, 45, 65, 61, 12, 67, 52, 43, 96, 66, 71, 43, 48, 67, 25, 24, 65, 24, 24, 42, 47, 41, 69, 80, 56, 90, 91, 58, 100, 21, 49, 42, 21, 65, 50, 94, 63, 60, 96, 23, 80, 28, 76, 47, 30, 83, 89, 51, 22, 32, 86, 40, 61, 84, 79, 27, 80, 35, 77, 12, 91, 93, 73, 39, 93, 54, 100, 10, 24, 17, 11, 15, 10, 66, 18, 99, 85, 62, 74, 60, 74, 25, 58, 57, 68, 51, 42, 10, 22, 75, 36, 32, 32, 21, 65, 12, 95, 45, 73, 29, 72, 24, 11, 57, 34, 33, 58, 20, 18, 43, 45, 81, 35, 13, 28, 27, 19, 36, 76, 48, 40, 85, 18, 22, 60, 59, 30, 70, 64, 17, 54, 14, 10, 68, 31, 60, 87, 77, 74, 95, 52, 35, 96, 30, 96, 44, 58, 16, 38, 57, 50, 88, 35, 90, 98, 64, 45, 27, 39, 58, 43, 57, 59, 58, 50, 65, 94, 48, 42, 55, 94, 55, 17, 87, 89, 21, 49, 72, 25, 95, 83, 99, 85, 78, 58, 99, 66, 44, 95, 21, 58, 90, 61, 62, 37, 29, 40, 30, 86, 86, 66, 69, 29, 16, 100, 99, 88, 81, 40, 97, 12, 58, 40, 52, 91, 44, 45, 42, 10, 67, 39, 44, 33, 74, 36, 65, 73, 44, 57, 46, 42, 85, 52, 63, 50, 84, 25, 93, 14, 28, 45, 39, 38, 70, 20, 16, 94, 37, 81, 89, 93, 51, 44, 46, 36, 12, 46, 84, 49, 64, 83, 33, 31, 74, 28, 32, 44, 79, 67, 98, 34, 44, 38, 52, 55, 53, 85, 40, 11, 99, 100, 85, 99, 15, 47, 18, 61, 38, 62, 15, 27, 73, 87, 76, 28, 12, 65, 34, 90, 93, 90, 32, 57, 45, 61, 42, 27, 13, 35, 80, 61, 91, 10, 62, 12, 98, 86, 81, 40, 44, 29, 51, 57, 56, 47, 40, 78, 66, 64, 24, 10, 90, 10, 93, 98, 26, 50, 67, 74, 39, 45, 65, 20, 65, 63, 85, 36, 17, 48, 30, 91, 98, 57, 34, 49, 27, 96, 54, 26, 33, 64, 73, 42, 18, 25, 44, 59, 72, 62, 31, 78, 32, 32, 56, 99, 45, 81, 88, 15, 10, 14, 18, 88, 44, 76, 22, 43, 73, 19, 66, 81, 20, 36, 55, 74, 71, 20, 47, 21, 49, 86, 66, 41, 44, 22, 25, 26, 39, 23, 36, 93, 27, 62, 61, 44, 49, 69, 18, 89, 93, 30, 75, 93, 44, 29, 27, 84, 12, 62, 71, 40, 93, 41, 34, 63, 38, 34, 72, 98, 90, 71, 89, 16, 56, 76, 83, 24, 38, 34, 54, 35, 27, 45, 86, 76, 48, 70, 79, 13, 47, 40, 75, 31, 26, 52, 97, 14, 56, 33, 38, 88, 62, 31, 36, 75, 50, 85, 92, 82, 64, 70, 59, 37, 78, 28, 80, 63, 92, 78, 68, 90, 24, 35, 42, 82, 63, 28, 61, 13, 18, 55, 21, 58, 90, 99, 85, 53, 58, 71, 58, 57, 53, 63, 63, 16, 16, 41, 76, 99, 91, 17, 47, 37, 96, 20, 56, 25, 12, 91, 63, 95, 80, 12, 22, 16, 42, 100, 63, 37, 99, 53, 39, 40, 54, 68, 96, 79, 40, 93, 64, 96, 53, 85, 81, 37, 30, 75, 22, 89, 80, 21, 50, 89, 39, 45, 92, 30, 13, 33, 23, 85, 45, 87, 13, 38, 91, 57, 13, 66, 88, 21, 47, 29, 86, 30, 89, 99, 38, 18, 62, 94, 16, 23, 99, 86, 14, 37, 73, 10, 100, 12, 26, 57, 18, 70, 87, 66, 45, 34, 49, 50, 17, 13, 77, 65, 32, 32, 64, 65, 77, 98, 58, 46, 45, 29, 61, 22, 54, 97, 94, 58, 20, 59, 22, 27, 55, 35, 12, 74, 28, 30, 99, 43, 28, 60, 44, 58, 17, 34, 72, 69, 93, 42, 91, 87, 22, 40, 51, 69, 48, 77, 23, 14, 49, 37, 52, 46, 99, 66, 20, 22, 22, 47, 95, 29, 59, 53, 22, 81, 42, 40, 10, 53, 84, 28, 92, 19, 41, 48, 43, 76, 93, 84, 76, 67, 15, 44, 59, 15, 91, 11, 97, 61, 58, 53, 63, 77, 14, 91, 64, 72, 53, 45, 51, 98, 10, 51, 60, 84, 46, 19, 65, 96, 67, 64, 87, 92, 64, 76, 60, 11, 28, 52, 20, 36, 42, 32, 40, 90, 60, 76, 64, 19, 45, 37, 98, 26, 28, 88, 36, 48, 68, 48, 90, 89, 54, 67, 93, 83, 14, 70, 55, 14, 44, 10, 17, 71, 19, 82, 11, 91, 25, 32, 77, 42, 18, 30, 42, 39, 27, 97, 87, 94, 69, 59, 93, 73, 53, 62, 82, 78, 27, 86, 63, 81, 25, 59, 40, 93, 50, 73, 69, 86, 41, 19, 95, 68, 42, 51, 68, 43, 15, 21, 86, 68, 92, 55, 69, 49, 25, 81, 95, 93, 46, 89, 92, 39, 96, 70, 90, 61, 17, 97, 57, 42, 36, 86, 46, 48, 11, 51, 23, 38, 98, 43, 43, 62, 83, 30, 13, 24, 55, 56, 30, 79, 71, 45, 24, 48, 73, 83, 66, 13, 63, 22, 89, 61, 69, 60, 41, 53, 28, 84, 71, 95, 60, 64, 92, 76, 49, 59, 79, 23, 93, 32, 84, 28, 49, 24, 41, 27, 12, 24, 98, 67, 49, 73, 77, 48, 49, 65, 83, 40, 90, 77, 59, 70, 76, 60, 74, 56, 68, 40, 83, 68, 77, 79, 48, 58, 21, 38, 57, 10, 14, 18, 75, 54, 33, 71, 18, 62, 69, 81, 46, 14, 36, 31, 37, 31, 51, 45, 62, 64, 54, 50, 45, 96, 76, 92, 18, 18, 29, 21, 44, 78, 83, 83, 70, 82, 99, 93, 30, 59, 80, 48, 20, 15, 37, 45, 82, 64, 38, 79, 68, 67, 12, 77, 10, 93, 92, 69, 47, 59, 81, 78, 69, 66, 78, 33, 76, 50, 26, 36, 54, 57, 65, 34, 38, 63, 42, 80, 65, 10, 95, 47, 24, 37, 66, 44, 48, 98, 68, 50, 44, 66, 43, 41, 34, 56, 41, 37, 89, 93, 81, 91, 77, 66, 17, 26, 72, 53, 67, 84, 72, 32, 85, 78, 54, 34, 68, 11, 18, 55, 50, 90, 94, 50, 91, 45, 74, 37, 71, 66, 95, 78, 30, 41, 16, 17, 40, 69, 62, 58, 93, 62, 29, 97, 63, 93, 100, 71, 31, 52, 70, 47, 23, 25, 48, 74, 64, 32, 47, 37, 65, 15, 24, 65, 93, 56, 97, 90, 87, 72, 13, 16, 49, 34, 30, 40, 13, 35, 70, 57, 42, 69, 19, 52, 58, 87, 84, 78, 17, 90, 17, 96, 81, 49, 74, 58, 61, 43, 58, 40, 68, 26, 63, 95, 19, 49, 92, 64, 52, 20, 15, 24, 94, 49, 48, 36, 95, 80, 53, 48, 23, 84, 24, 59, 98, 32, 50, 44, 10, 58, 100, 98, 68, 31, 58, 23, 43, 40, 98, 39, 48, 49, 66, 64, 100, 12, 95, 75, 66, 23, 66, 36, 48, 24, 10, 13, 44, 98, 31, 22, 84, 53, 13, 27, 79, 11, 75, 16, 13, 82, 11, 49, 98, 73, 73, 62, 82, 83, 85, 61, 24, 77, 85, 24, 43, 63, 97, 12, 79, 39, 85, 51, 59, 65, 13, 85, 65, 52, 54, 12, 30, 20, 89, 91, 36, 18, 44, 16, 90, 59, 22, 73, 85, 76, 78, 32, 55, 18, 56, 28, 75, 83, 32, 53, 92, 63, 50, 96, 65, 83, 33, 92, 63, 27, 17, 77, 53, 36, 66, 40, 86, 22, 74, 92, 99, 90, 15, 69, 64, 71, 66, 66, 46, 45, 99, 56, 65, 40, 73, 62, 86, 27, 57, 63, 40, 52, 58, 43, 56, 18, 34, 21, 26, 56, 19, 86, 27, 63, 28, 14, 99, 62, 39, 47, 35, 18, 35, 65, 46, 16, 88, 44, 32, 90, 52, 92, 28, 54, 73, 33, 87, 47, 44, 95, 10, 72, 96, 79, 99, 64, 35, 21, 88, 30, 93, 20, 29, 83, 67, 84, 37, 62, 39, 29, 70, 98, 65, 73, 17, 18, 78, 36, 95, 86, 90, 43, 61, 90, 33, 49, 71, 63, 55, 51, 65, 92, 58, 68, 58, 53, 32, 74, 15, 91, 80, 65, 41, 48, 65, 28, 24, 41, 68, 12, 92, 57, 22, 21, 11, 28, 36, 59, 89, 40, 61, 77, 80, 85, 99, 92, 60, 38, 22, 50, 68, 68, 18, 22, 10, 27, 49, 57, 73, 71, 99, 42, 67, 16, 80, 81, 39, 56, 27, 60, 87, 80, 85, 36, 45, 41, 85, 14, 53, 50, 23, 60, 68, 63, 46, 13, 69, 59, 63, 62, 82, 61, 40, 95, 34, 15, 57, 53, 65, 79, 27, 75, 21, 91, 36, 32, 43, 93, 80, 22, 63, 12, 61, 84, 89, 58, 35, 10, 23, 85, 42, 63, 72, 57, 81, 84, 28, 40, 77, 97, 86, 94, 94, 43, 89, 52, 85, 32, 17, 66, 61, 11, 46, 16, 82, 77, 96, 94, 58, 93, 81, 70, 65, 30, 11, 22, 24, 44, 37, 48, 66, 30, 96, 60, 67, 29, 13, 13, 15, 29, 32, 43, 37, 35, 88, 43, 100, 41, 21, 86, 85, 77, 91, 67, 91, 10, 27, 39, 74, 10, 71, 86, 60, 98, 42, 100, 61, 84, 99, 24, 24, 25, 16, 10, 47, 15, 91, 82, 35, 20, 22, 24, 32, 21, 84, 35, 40, 85, 72, 31, 74, 81, 21, 65, 100, 94, 59, 47, 29, 27, 59, 74, 52, 85, 49, 67, 76, 38, 90, 32, 57, 42, 97, 25, 83, 56, 55, 29, 97, 15, 67, 94, 86, 41, 41, 67, 35, 30, 64, 58, 34, 26, 51, 27, 66, 24, 95, 48, 10, 42, 66, 34, 63, 74, 80, 13, 51, 84, 66, 44, 96, 92, 36, 86, 37, 63, 54, 50, 30, 88, 20, 12, 50, 15, 93, 28, 24, 63, 11, 19, 91, 37, 16, 61, 66, 30, 67, 19, 30, 71, 11, 10, 85, 51, 53, 94, 81, 74, 64, 87, 39, 50, 38, 44, 10, 45, 87, 47, 53, 70, 74, 30, 86, 36, 82, 63, 87, 21, 17, 97, 100, 27, 61, 35, 72, 38, 53, 66, 35, 54, 20, 74, 75, 53, 80, 14, 25, 31, 87, 16, 22, 99, 96, 60, 61, 39, 24, 70, 41, 98, 14, 96, 36, 64, 80, 39, 60, 16, 38, 92, 15, 61, 65, 45, 98, 14, 16, 67, 10, 22, 36, 38, 88, 31, 16, 82, 95, 34, 44, 64, 100, 58, 13, 54, 94, 77, 84, 89, 31, 11, 33, 30, 57, 41, 97, 98, 45, 46, 72, 75, 32, 62, 18, 24, 36, 64, 58, 62, 46, 15, 51, 34, 71, 22, 11, 27, 41, 56, 38, 74, 24, 88, 26, 59, 57, 97, 40, 77, 44, 51, 84, 14, 55, 43, 28, 34, 87, 39, 16, 37, 92, 93, 89, 21, 35, 73, 63, 64, 50, 25, 75, 39, 79, 20, 70, 29, 19, 21, 74, 45, 20, 60, 31, 63, 76, 29, 75, 69, 32, 51, 91, 44, 35, 72, 62, 54, 21, 29, 42, 31, 83, 70, 20, 15, 100, 82, 51, 47, 74, 61, 74, 66, 81, 23, 65, 16, 70, 99, 51, 50, 67, 70, 96, 47, 15, 22, 18, 22, 20, 43, 71, 64, 98, 100, 22, 22, 18, 99, 97, 11, 38, 26, 79, 84, 87, 51, 50, 56, 33, 38, 26, 10, 12, 84, 52, 41, 55, 66, 45, 59, 53, 87, 26, 54, 10, 53, 60, 29, 65, 45, 90, 100, 87, 88, 44, 67, 60, 74, 20, 85, 32, 90, 13, 53, 82, 61, 75, 78, 14, 64, 19, 50, 63, 13, 88, 63, 53, 51, 99, 93, 77, 99, 39, 60, 10, 15, 81, 74, 100, 32, 55, 82, 17, 90, 98, 97, 12, 47, 88, 20, 68, 13, 78, 13, 20, 45, 21, 45, 20, 94, 40, 30, 45, 13, 34, 74, 85, 63, 39, 93, 43, 30, 46, 92, 21, 76, 61, 86, 39, 49, 100, 36, 79, 84, 37, 85, 69, 49, 10, 31, 21, 66, 84, 89, 62, 61, 85, 14, 69, 39, 42, 68, 35, 78, 36, 29, 48, 92, 87, 96, 35, 23, 42, 83, 17, 47, 73, 53, 62, 21, 67, 94, 96, 68, 44, 52, 93, 35, 80, 85, 32, 63, 68, 66, 33, 80, 18, 45, 12, 22, 13, 100, 15, 36, 75, 52, 19, 97, 11, 72, 89, 73, 27, 27, 77, 24, 85, 37, 78, 13, 21, 76, 39, 46, 12, 47, 28, 27, 38, 17, 15, 99, 64, 51, 15, 28, 24, 82, 77, 22, 77, 44, 50, 64, 53, 57, 12, 53, 36, 52, 64, 79, 56, 51, 97, 73, 12, 24, 53, 41, 70, 55, 77, 49, 58, 27, 64, 28, 27, 55, 99, 22, 100, 38, 20, 55, 22, 33, 79, 74, 14, 18, 15, 90, 91, 13, 35, 32, 55, 15, 54, 24, 88, 47, 79, 44, 31, 63, 29, 87, 47, 45, 70, 65, 66, 100, 25, 67, 11, 10, 92, 56, 32, 67, 94, 58, 27, 58, 93, 57, 46, 95, 19, 16, 15, 45, 67, 59, 26, 80, 49, 32, 83, 56, 50, 66, 32, 35, 96, 24, 38, 86, 31, 19, 14, 58, 16, 59, 31, 27, 92, 94, 45, 22, 36, 46, 71, 32, 48, 80, 74, 12, 20, 75, 10, 77, 47, 24, 97, 34, 77, 50, 37, 66, 33, 88, 22, 49, 80, 95, 34, 35, 85, 14, 13, 50, 58, 90, 71, 11, 73, 60, 77, 59, 93, 83, 16, 63, 87, 76, 40, 25, 88, 95, 80, 90, 23, 21, 94, 13, 89, 10, 23, 14, 32, 41, 44, 76, 69, 60, 42, 99, 19, 46, 81, 61, 74, 52, 54, 76, 28, 83, 19, 94, 98, 23, 10, 90, 76, 81, 40, 69, 78, 39, 68, 59, 18, 29, 11, 73, 36, 76, 75, 29, 23, 67, 97, 64, 76, 96, 10, 91, 90, 51, 23, 74, 27, 58, 12, 11, 35, 57, 70, 22, 40, 85, 32, 45, 76, 14, 74, 43, 40, 66, 14, 35, 99, 61, 68, 62, 26, 34, 78, 45, 43, 53, 34, 76, 24, 76, 72, 34, 37, 28, 60, 96, 77, 77, 65, 66, 32, 88, 92, 45, 39, 57, 64, 96, 49, 38, 58, 53, 97, 18, 21, 100, 82, 72, 57, 16, 74, 27, 90, 30, 79, 67, 66, 70, 37, 66, 37, 71, 28, 84, 70, 85, 66, 11, 10, 99, 22, 72, 26, 85, 57, 93, 57, 84, 18, 75, 100, 96, 11, 75, 97, 40, 29, 75, 95, 31, 24, 43, 40, 16, 72, 63, 50, 30, 54, 46, 61, 75, 77, 43, 46, 62, 56, 35, 88, 14, 93, 34, 15, 23, 58, 47, 82, 84, 71, 10, 55, 90, 21, 64, 90, 37, 75, 73, 40, 14, 28, 17, 58, 30, 23, 31, 64, 76, 61, 97, 79, 86, 89, 12, 63, 13, 38, 72, 36, 58, 86, 71, 38, 72, 91, 32, 90, 75, 49, 23, 31, 71, 21, 25, 82, 91, 22, 41, 63, 30, 62, 91, 47, 59, 31, 27, 70, 31, 63, 68, 63, 98, 36, 88, 20, 53, 33, 21, 72, 31, 81, 28, 77, 17, 85, 27, 93, 73, 50, 92, 33, 42, 13, 15, 60, 99, 84, 83, 20, 100, 52, 87, 86, 32, 46, 14, 77, 55, 33, 14, 79, 35, 67, 12, 20, 67, 37, 37, 73, 78, 22, 21, 35, 12, 46, 96, 56, 17, 12, 81, 22, 42, 75, 28, 19, 31, 63, 58, 94, 54, 100, 64, 42, 75, 96, 39, 58, 79, 67, 71, 99, 78, 74, 59, 61, 62, 84, 78, 47, 43, 97, 93, 38, 24, 27, 63, 100, 75, 56, 15, 26, 53, 99, 54, 57, 94, 99, 10, 62, 10, 10, 42, 65, 41, 28, 47, 69, 12, 86, 95, 37, 12, 52, 58, 22, 81, 46, 36, 41, 90, 86, 68, 96, 37, 22, 21, 78, 79, 48, 48, 16, 76, 62, 52, 40, 94, 92, 74, 94, 52, 38, 44, 73, 46, 79, 95, 76, 41, 42, 48, 97, 68, 59, 64, 14, 12, 94, 39, 79, 99, 88, 91, 17, 17, 22, 70, 79, 69, 10, 24, 41, 55, 43, 92, 87, 32, 21, 25, 30, 11, 66, 42, 39, 68, 94, 91, 13, 28, 50, 99, 43, 40, 19, 20, 31, 90, 71, 28, 77, 27, 82, 79, 17, 13, 41, 85, 55, 71, 71, 91, 68, 49, 95, 56, 27, 40, 58, 43, 36, 38, 98, 31, 24, 20, 94, 61, 78, 65, 32, 60, 73, 71, 90, 74, 56, 78, 38, 95, 49, 22, 47, 50, 72, 73, 56, 50, 37, 58, 82, 21, 82, 42, 35, 67, 17, 58, 15, 54, 90, 52, 24, 98, 98, 77, 46, 67, 72, 65, 94, 31, 48, 76, 90, 21, 60, 41, 37, 53, 67, 21, 10, 20, 83, 44, 59, 79, 41, 91, 15, 39, 44, 39, 65, 51, 18, 76, 25, 87, 88, 13, 48, 31, 95, 12, 60, 71, 24, 13, 75, 27, 70, 82, 69, 72, 34, 57, 82, 29, 27, 25, 40, 38, 94, 43, 62, 71, 75, 76, 59, 57, 93, 59, 15, 86, 93, 79, 12, 11, 15, 81, 84, 68, 93, 91, 21, 94, 64, 68, 33, 90, 84, 64, 27, 28, 91, 80, 74, 72, 80, 45, 13, 42, 32, 53, 45, 73, 41, 34, 25, 50, 28, 87, 88, 70, 35, 74, 29, 75, 93, 12, 69, 74, 74, 49, 50, 30, 77, 69, 73, 40, 82, 21, 49, 83, 15, 44, 47, 45, 41, 32, 31, 62, 24, 14, 11, 85, 60, 24, 32, 24, 74, 19, 61, 12, 40, 31, 64, 38, 35, 18, 89, 99, 25, 74, 69, 75, 55, 65, 33, 35, 39, 53, 11, 57, 81, 97, 72, 89, 46, 64, 67, 97, 14, 96, 27, 90, 69, 64, 69, 10, 92, 67, 29, 83, 27, 11, 75, 70, 88, 19, 64, 68, 52, 19, 15, 70, 68, 40, 43, 35, 67, 84, 68, 76, 62, 77, 30, 13, 28, 28, 27, 45, 60, 98, 32, 60, 57, 93, 69, 73, 75, 21, 65, 51, 46, 23, 81, 27, 29, 47, 83, 35, 42, 30, 25, 35, 82, 84, 35, 10, 62, 59, 45, 74, 81, 86, 100, 43, 67, 16, 28, 11, 15, 98, 82, 67, 57, 59, 64, 37, 26, 37, 79, 15, 12, 32, 19, 68, 35, 82, 70, 71, 35, 42, 39, 96, 73, 59, 21, 38, 56, 62, 89, 33, 81, 92, 90, 90, 60, 83, 97, 55, 55, 59, 87, 99, 27, 37, 27, 70, 15, 100, 89, 39, 63, 85, 40, 51, 57, 44, 36, 96, 54, 11, 81, 28, 94, 87, 35, 88, 59, 89, 45, 78, 58, 54, 84, 36, 81, 38, 97, 62, 94, 82, 99, 18, 12, 29, 34, 35, 68, 67, 30, 20, 16, 99, 85, 85, 13, 22, 100, 40, 85, 90, 56, 33, 21, 52, 81, 87, 45, 80, 95, 61, 70, 21, 85, 60, 60, 94, 86, 48, 30, 52, 38, 53, 16, 22, 31, 55, 96, 23, 11, 54, 67, 20, 13, 77, 32, 12, 85, 16, 90, 23, 76, 93, 64, 79, 45, 69, 36, 97, 16, 92, 72, 70, 16, 98, 69, 57, 83, 78, 80, 70, 59, 63, 18, 98, 17, 16, 25, 56, 21, 14, 78, 28, 28, 19, 72, 71, 99, 46, 14, 20, 49, 31, 42, 26, 98, 82, 46, 31, 43, 76, 54, 52, 63, 45, 27, 25, 78, 71, 37, 100, 55, 36, 84, 60, 100, 12, 72, 76, 73, 28, 54, 83, 100, 45, 54, 27, 49, 87, 35, 58, 46, 81, 32, 16, 17, 89, 72, 10, 43, 55, 18, 10, 38, 23, 73, 56, 80, 87, 46, 42, 32, 32, 43, 83, 44, 64, 60, 32, 47, 22, 76, 42, 16, 25, 77, 18, 21, 96, 32, 22, 77, 34, 61, 26, 43, 77, 69, 70, 69, 24, 55, 60, 10, 54, 40, 42, 59, 38, 89, 24, 86, 85, 22, 75, 46, 34, 85, 80, 28, 25, 89, 46, 21, 56, 77, 77, 89, 56, 44, 34, 73, 43, 25, 100, 12, 48, 22, 23, 43, 81, 91, 66, 35, 68, 20, 78, 25, 62, 53, 98, 84, 52, 94, 66, 60, 97, 21, 73, 78, 45, 69, 83, 98, 96, 94, 28, 44, 85, 38, 55, 60, 23, 64, 41, 45, 69, 91, 30, 36, 99, 89, 59, 65, 32, 54, 42, 92, 26, 76, 21, 68, 61, 67, 24, 17, 56, 74, 13, 53, 89, 41, 93, 81, 49, 30, 31, 22, 37, 58, 74, 60, 40, 15, 75, 45, 77, 21, 29, 68, 27, 27, 85, 33, 42, 42, 14, 63, 91, 73, 21, 36, 29, 88, 43, 50, 12, 94, 100, 59, 33, 81, 28, 82, 30, 75, 41, 69, 97, 29, 79, 63, 69, 39, 62, 34, 100, 27, 22, 79, 61, 45, 67, 31, 61, 36, 38, 26, 98, 44, 44, 58, 18, 58, 91, 51, 73, 81, 92, 10, 62, 64, 26, 71, 36, 36, 99, 27, 27, 44, 10, 23, 68, 98, 84, 16, 28, 58, 98, 17, 85, 30, 24, 33, 17, 67, 100, 59, 73, 38, 84, 42, 99, 71, 100, 77, 54, 61, 100, 14, 98, 47, 98, 97, 78, 54, 74, 18, 50, 42, 63, 48, 76, 73, 37, 36, 84, 45, 78, 87, 50, 37, 79, 33, 97, 95, 18, 68, 28, 56, 53, 82, 46, 42, 84, 17, 73, 34, 80, 55, 53, 63, 89, 74, 41, 92, 30, 58, 59, 47, 55, 68, 45, 71, 92, 43, 83, 75, 25, 30, 81, 98, 64, 47, 100, 31, 66, 17, 84, 32, 24, 97, 43, 85, 15, 42, 79, 34, 69, 42, 97, 84, 64, 78, 16, 75, 78, 71, 38, 44, 45, 83, 89, 46, 18, 99, 34, 51, 33, 65, 32, 12, 67, 100, 21, 56, 87, 78, 45, 34, 41, 12, 93, 78, 55, 93, 21, 80, 10, 16, 33, 72, 30, 52, 69, 32, 85, 65, 95, 48, 36, 62, 50, 34, 15, 43, 17, 12, 64, 100, 97, 32, 76, 83, 36, 29, 87, 31, 72, 40, 45, 44, 67, 29, 81, 22, 78, 86, 52, 24, 19, 27, 100, 24, 14, 91, 89, 55, 64, 66, 60, 31, 84, 52, 21, 71, 57, 41, 30, 15, 84, 82, 41, 45, 100, 55, 87, 33, 94, 88, 25, 88, 59, 28, 75, 23, 85, 42, 73, 29, 27, 42, 82, 44, 49, 87, 60, 75, 66, 33, 83, 31, 34, 89, 42, 36, 39, 69, 30, 100, 36, 49, 17, 74, 68, 22, 81, 68, 84, 68, 29, 85, 31, 75, 11, 79, 96, 53, 44, 78, 11, 89, 39, 19, 78, 49, 70, 24, 68, 48, 13, 73, 20, 99, 24, 97, 19, 91, 50, 67, 21, 14, 68, 91, 39, 17, 35, 36, 51, 35, 56, 100, 59, 72, 38, 67, 63, 85, 53, 59, 74, 22, 69, 88, 94, 35, 18, 24, 18, 76, 17, 33, 57, 44, 47, 20, 64, 100, 33, 27, 86, 74, 13, 61, 66, 56, 90, 45, 28, 18, 41, 69, 91, 95, 67, 33, 37, 43, 40, 38, 87, 39, 35, 97, 33, 41, 42, 78, 49, 73, 16, 26, 16, 72, 62, 23, 48, 17, 19, 42, 23, 29, 27, 99, 51, 27, 67, 22, 45, 10, 91, 30, 25, 66, 17, 83, 29, 64, 99, 98, 67, 60, 66, 74, 37, 22, 62, 75, 10, 12, 85, 34, 68, 31, 37, 54, 62, 42, 98, 61, 37, 75, 36, 97, 44, 34, 33, 15, 71, 22, 94, 27, 64, 40, 25, 84, 62, 15, 88, 12, 91, 72, 67, 72, 21, 37, 46, 80, 77, 20, 83, 56, 73, 22, 27, 23, 43, 61, 32, 39, 19, 65, 83, 97, 50, 52, 14, 60, 91, 64, 93, 56, 97, 52, 93, 43, 77, 11, 27, 35, 15, 44, 58, 26, 87, 30, 85, 64, 14, 75, 99, 83, 93, 33, 90, 63, 16, 82, 88, 43, 74, 44, 63, 39, 70, 23, 100, 44, 54, 92, 48, 45, 37, 35, 59, 56, 46, 26, 91, 61, 50, 65, 46, 54, 29, 74, 73, 42, 59, 74, 32, 97, 88, 88, 13, 31, 88, 94, 10, 40, 20, 43, 90, 88, 70, 97, 71, 78, 14, 85, 85, 31, 39, 48, 13, 95, 47, 14, 35, 41, 75, 38, 32, 17, 60, 99, 99, 12, 21, 20, 75, 43, 16, 33, 77, 39, 63, 10, 23, 69, 76, 81, 82, 58, 32, 27, 56, 95, 81, 20, 88, 17, 22, 68, 64, 98, 80, 99, 82, 51, 79, 90, 33, 34, 40, 86, 57, 30, 71, 95, 36, 24, 17, 10, 80, 77, 28, 75, 57, 83, 40, 88, 18, 36, 14, 30, 16, 76, 78, 90, 10, 29, 77, 93, 81, 33, 26, 34, 99, 93, 25, 45, 90, 69, 71, 48, 15, 25, 77, 17, 40, 27, 61, 14, 44, 13, 21, 11, 16, 74, 80, 30, 29, 42, 26, 61, 44, 12, 38, 76, 66, 71, 62, 83, 86, 86, 34, 47, 44, 67, 11, 14, 66, 64, 23, 66, 47, 92, 100];
