ITEM = _(1..50);
capacities = [584, 307, 700];
profits = [731, 757, 408, 287, 605, 844, 506, 510, 941, 362, 42, 535, 217, 481, 594, 836, 921, 733, 387, 882, 715, 859, 869, 294, 487, 916, 840, 280, 45, 622, 219, 25, 137, 337, 684, 93, 683, 987, 259, 904, 574, 500, 126, 296, 862, 880, 45, 262, 752, 789];
weights = [66, 33, 63, 55, 99, 68, 59, 82, 33, 74, 10, 27, 77, 15, 26, 33, 48, 10, 33, 90, 25, 92, 82, 94, 49, 16, 56, 18, 45, 35, 83, 19, 66, 89, 54, 59, 26, 55, 54, 70, 72, 45, 76, 13, 32, 23, 93, 78, 45, 53];
