ITEM = _(1..75);
capacities = [469, 564, 970];
profits = [140, 764, 156, 269, 638, 105, 190, 129, 107, 827, 476, 457, 641, 619, 565, 948, 54, 412, 313, 336, 818, 356, 772, 413, 896, 73, 235, 988, 311, 336, 756, 762, 49, 150, 491, 955, 278, 862, 69, 956, 415, 721, 112, 264, 465, 30, 437, 311, 245, 132, 175, 338, 123, 455, 988, 77, 325, 516, 960, 816, 521, 371, 380, 765, 185, 686, 910, 853, 356, 91, 542, 96, 375, 696, 369];
weights = [20, 50, 64, 69, 59, 86, 33, 71, 84, 37, 87, 52, 22, 74, 63, 64, 27, 79, 32, 73, 62, 100, 100, 87, 47, 15, 79, 32, 95, 43, 11, 85, 63, 23, 50, 61, 78, 43, 10, 28, 83, 40, 17, 14, 70, 89, 21, 18, 16, 92, 96, 72, 59, 14, 26, 26, 10, 85, 31, 62, 78, 97, 81, 31, 75, 57, 53, 72, 32, 45, 59, 75, 44, 85, 34];
