ITEM = _(1..100);
capacities = [562, 685, 960];
profits = [666, 819, 776, 951, 472, 866, 586, 982, 701, 920, 138, 604, 174, 21, 162, 439, 155, 707, 196, 890, 138, 201, 643, 188, 629, 421, 544, 601, 227, 682, 614, 538, 825, 464, 181, 156, 386, 745, 777, 769, 520, 151, 614, 562, 967, 444, 181, 296, 263, 442, 150, 487, 276, 208, 486, 934, 751, 233, 542, 277, 100, 979, 774, 11, 57, 927, 289, 915, 130, 90, 491, 481, 377, 392, 682, 893, 99, 375, 761, 486, 752, 604, 513, 806, 864, 312, 284, 95, 705, 251, 272, 699, 626, 82, 703, 714, 590, 740, 628, 651];
weights = [50, 48, 32, 84, 69, 76, 53, 95, 63, 99, 91, 19, 58, 57, 72, 74, 14, 18, 12, 57, 66, 42, 54, 24, 86, 53, 71, 62, 53, 19, 65, 21, 47, 53, 18, 44, 76, 51, 36, 13, 97, 56, 16, 71, 13, 45, 13, 88, 96, 67, 17, 34, 70, 98, 51, 45, 39, 68, 19, 11, 77, 17, 53, 26, 34, 19, 93, 85, 95, 12, 53, 59, 92, 74, 48, 36, 78, 34, 73, 24, 14, 75, 39, 76, 75, 31, 41, 94, 24, 29, 56, 73, 70, 65, 21, 99, 60, 51, 10, 68];
