ITEM = _(1..200);
capacities = [290, 406, 229];
profits = [350, 603, 741, 712, 392, 71, 490, 857, 487, 226, 647, 29, 554, 824, 667, 75, 965, 329, 737, 259, 188, 564, 464, 512, 448, 324, 651, 54, 766, 544, 856, 424, 53, 475, 623, 827, 252, 512, 399, 577, 676, 717, 905, 78, 729, 805, 771, 163, 524, 223, 176, 813, 545, 517, 254, 228, 273, 693, 522, 282, 248, 343, 739, 755, 464, 67, 713, 963, 173, 591, 612, 68, 141, 367, 861, 14, 945, 900, 938, 537, 463, 668, 381, 705, 162, 985, 153, 245, 421, 561, 911, 220, 694, 212, 61, 311, 262, 229, 771, 384, 769, 466, 373, 813, 167, 128, 426, 275, 766, 680, 754, 182, 398, 53, 510, 501, 216, 826, 351, 287, 20, 518, 853, 171, 526, 989, 659, 936, 479, 831, 955, 486, 754, 15, 704, 154, 850, 909, 855, 762, 908, 92, 123, 991, 817, 885, 957, 543, 65, 550, 710, 965, 133, 899, 732, 400, 751, 748, 836, 862, 248, 178, 70, 981, 382, 467, 232, 285, 83, 246, 132, 747, 456, 356, 746, 473, 334, 398, 818, 590, 831, 697, 209, 61, 751, 818, 626, 175, 819, 959, 775, 473, 847, 27, 557, 959, 883, 844, 79, 930];
weights = [47, 48, 44, 30, 40, 62, 58, 41, 92, 70, 99, 66, 86, 54, 45, 13, 74, 25, 69, 83, 26, 53, 50, 64, 46, 23, 49, 83, 98, 28, 18, 97, 77, 45, 13, 31, 54, 71, 66, 79, 35, 68, 39, 26, 22, 76, 28, 68, 43, 68, 65, 83, 30, 62, 92, 21, 87, 57, 69, 74, 97, 20, 14, 26, 60, 84, 28, 41, 37, 75, 12, 42, 59, 80, 15, 79, 67, 40, 43, 98, 79, 63, 39, 56, 29, 25, 74, 42, 41, 10, 86, 26, 77, 73, 51, 62, 33, 58, 88, 27, 39, 72, 67, 62, 97, 53, 34, 71, 75, 96, 57, 71, 48, 43, 45, 83, 100, 86, 79, 10, 29, 59, 37, 86, 67, 36, 90, 75, 87, 84, 47, 88, 13, 73, 91, 20, 29, 34, 94, 11, 62, 14, 56, 39, 38, 48, 48, 14, 83, 20, 66, 13, 27, 66, 33, 78, 31, 72, 96, 64, 44, 21, 58, 47, 68, 40, 64, 83, 74, 92, 62, 80, 60, 15, 70, 13, 94, 87, 24, 55, 90, 17, 75, 11, 91, 48, 83, 32, 65, 100, 91, 33, 20, 34, 61, 16, 14, 33, 96, 86];
