ITEM = _(1..500);
capacities = [561, 315, 904];
profits = [631, 838, 813, 907, 291, 462, 746, 615, 748, 783, 56, 516, 686, 162, 414, 66, 523, 386, 759, 288, 153, 464, 32, 79, 684, 266, 895, 574, 884, 317, 164, 116, 896, 178, 29, 277, 884, 564, 365, 236, 677, 364, 472, 847, 437, 252, 381, 407, 279, 406, 747, 719, 871, 524, 776, 48, 307, 357, 736, 337, 722, 993, 528, 365, 355, 793, 822, 905, 868, 478, 186, 883, 305, 498, 447, 970, 903, 74, 57, 733, 676, 434, 180, 651, 518, 660, 677, 45, 326, 218, 268, 346, 895, 858, 979, 477, 940, 914, 953, 328, 730, 434, 273, 519, 657, 966, 41, 32, 969, 98, 294, 405, 874, 575, 665, 684, 91, 911, 25, 928, 129, 798, 307, 304, 398, 749, 316, 828, 958, 707, 791, 109, 628, 547, 698, 210, 958, 166, 731, 492, 342, 734, 515, 148, 443, 479, 398, 910, 668, 60, 45, 903, 172, 959, 147, 368, 95, 951, 982, 919, 781, 302, 265, 931, 167, 933, 755, 550, 847, 416, 754, 487, 651, 766, 511, 628, 561, 516, 564, 182, 757, 641, 251, 84, 19, 642, 521, 417, 961, 588, 134, 860, 721, 180, 355, 750, 68, 406, 51, 121, 728, 269, 114, 128, 727, 550, 983, 612, 193, 33, 769, 986, 759, 438, 905, 910, 456, 437, 977, 450, 168, 924, 486, 517, 431, 516, 204, 660, 648, 207, 89, 200, 638, 67, 523, 743, 421, 706, 927, 34, 292, 714, 985, 411, 837, 262, 519, 633, 180, 631, 484, 105, 139, 876, 727, 584, 491, 353, 868, 805, 719, 107, 746, 484, 475, 527, 402, 925, 309, 1000, 746, 560, 967, 519, 248, 452, 447, 22, 293, 389, 569, 178, 524, 114, 536, 830, 730, 542, 735, 599, 817, 779, 69, 41, 367, 98, 765, 937, 323, 198, 121, 589, 470, 619, 298, 954, 342, 167, 392, 583, 20, 451, 587, 939, 939, 144, 502, 253, 170, 524, 588, 267, 592, 304, 907, 326, 874, 532, 763, 406, 712, 332, 961, 799, 489, 55, 925, 142, 819, 257, 339, 516, 848, 817, 598, 818, 85, 125, 198, 384, 598, 570, 406, 672, 359, 885, 244, 950, 156, 160, 427, 891, 630, 584, 409, 551, 721, 616, 519, 45, 472, 928, 566, 760, 90, 132, 489, 809, 375, 829, 743, 382, 339, 392, 639, 891, 499, 721, 954, 326, 328, 83, 155, 315, 978, 515, 195, 893, 775, 45, 517, 557, 763, 925, 50, 180, 676, 450, 767, 835, 170, 343, 978, 544, 365, 97, 129, 473, 60, 331, 580, 91, 129, 931, 452, 689, 477, 701, 786, 272, 108, 811, 885, 965, 116, 586, 575, 13, 347, 366, 785, 920, 351, 688, 335, 84, 673, 443, 948, 546, 65, 347, 670, 364, 385, 498, 950, 331, 487, 332, 567, 433, 677, 521, 899, 454, 825, 617, 743, 526, 144, 873, 944, 332, 957, 187, 44, 451, 30, 293, 497, 602, 862, 878, 582, 884, 691, 631, 666, 197, 24, 465, 908, 431, 633, 87, 418, 369, 480, 727];
weights = [72, 80, 48, 78, 82, 100, 93, 60, 93, 66, 40, 83, 59, 53, 45, 45, 22, 78, 12, 75, 22, 79, 73, 36, 86, 35, 83, 38, 67, 52, 11, 68, 54, 99, 66, 42, 79, 36, 47, 22, 37, 31, 76, 54, 37, 85, 28, 29, 38, 12, 72, 46, 21, 39, 44, 100, 78, 17, 86, 96, 82, 58, 17, 71, 14, 23, 12, 48, 12, 73, 58, 39, 10, 89, 81, 35, 69, 71, 12, 89, 66, 20, 15, 92, 97, 37, 58, 10, 95, 45, 42, 37, 90, 37, 19, 67, 64, 31, 63, 55, 50, 75, 98, 69, 33, 20, 35, 48, 98, 72, 20, 11, 37, 76, 80, 54, 39, 57, 14, 58, 52, 51, 29, 41, 95, 76, 15, 96, 50, 30, 29, 92, 72, 66, 11, 73, 51, 22, 10, 92, 40, 53, 54, 82, 97, 31, 55, 77, 89, 22, 60, 97, 57, 69, 98, 40, 69, 22, 33, 73, 72, 57, 81, 22, 13, 95, 93, 72, 56, 32, 78, 74, 18, 70, 22, 84, 52, 72, 84, 37, 96, 31, 51, 25, 27, 78, 19, 66, 92, 63, 31, 66, 92, 28, 63, 53, 28, 55, 71, 12, 51, 45, 46, 40, 86, 21, 22, 37, 58, 73, 26, 29, 94, 19, 82, 11, 10, 44, 93, 76, 26, 58, 46, 67, 61, 70, 59, 97, 81, 36, 68, 32, 66, 68, 98, 12, 24, 22, 16, 76, 16, 55, 44, 97, 28, 29, 19, 98, 83, 65, 68, 94, 88, 57, 71, 86, 22, 86, 18, 97, 96, 78, 47, 86, 35, 67, 78, 58, 60, 99, 14, 76, 26, 43, 17, 19, 94, 59, 25, 57, 48, 25, 52, 77, 15, 79, 60, 64, 21, 38, 55, 88, 23, 83, 24, 42, 55, 67, 62, 36, 78, 93, 67, 99, 92, 44, 26, 89, 97, 97, 82, 47, 70, 80, 32, 27, 21, 81, 71, 30, 26, 34, 37, 37, 12, 86, 50, 74, 38, 91, 82, 70, 14, 29, 45, 10, 36, 37, 83, 40, 57, 83, 95, 19, 24, 53, 62, 75, 51, 47, 51, 31, 67, 56, 88, 96, 86, 82, 61, 51, 70, 54, 63, 49, 92, 26, 38, 10, 93, 27, 17, 14, 88, 34, 30, 95, 86, 13, 85, 100, 25, 85, 60, 92, 65, 60, 35, 54, 37, 23, 41, 24, 14, 43, 73, 21, 24, 31, 59, 86, 97, 26, 63, 42, 95, 66, 95, 26, 77, 60, 32, 66, 86, 75, 76, 20, 39, 21, 80, 74, 18, 64, 94, 30, 26, 33, 80, 53, 14, 69, 48, 61, 38, 52, 76, 55, 40, 23, 63, 96, 46, 91, 10, 42, 70, 14, 98, 19, 73, 22, 51, 23, 16, 26, 25, 77, 51, 75, 87, 21, 74, 71, 90, 67, 29, 72, 63, 10, 68, 27, 78, 48, 22, 27, 35, 35, 46, 14, 68, 38, 59, 45, 68, 20, 71, 16, 26, 51, 20, 86, 28, 20, 14, 82, 10, 15, 58, 52, 56, 28];
