ITEM = _(1..750);
capacities = [671, 487, 741];
profits = [590, 578, 555, 493, 556, 839, 994, 466, 71, 402, 757, 497, 772, 320, 702, 210, 794, 684, 803, 847, 575, 951, 817, 76, 645, 406, 757, 512, 155, 357, 960, 836, 251, 235, 127, 932, 513, 759, 25, 391, 280, 116, 318, 838, 951, 14, 842, 637, 796, 761, 259, 266, 357, 27, 255, 348, 959, 449, 421, 646, 239, 630, 744, 333, 404, 744, 306, 934, 706, 596, 481, 788, 20, 396, 111, 381, 123, 612, 708, 340, 838, 410, 307, 277, 80, 611, 170, 505, 35, 539, 191, 584, 859, 68, 381, 992, 610, 567, 131, 831, 330, 755, 102, 207, 843, 263, 553, 183, 980, 863, 540, 861, 195, 387, 497, 904, 367, 738, 830, 477, 976, 296, 93, 902, 99, 854, 247, 601, 516, 874, 92, 587, 198, 735, 396, 766, 736, 54, 161, 491, 28, 474, 750, 144, 86, 842, 413, 97, 274, 223, 231, 900, 870, 652, 403, 883, 520, 616, 137, 112, 91, 842, 500, 486, 919, 945, 926, 128, 473, 730, 358, 153, 270, 623, 165, 397, 485, 310, 133, 386, 319, 211, 404, 917, 844, 462, 518, 898, 969, 307, 728, 792, 358, 728, 244, 59, 133, 181, 311, 465, 43, 859, 621, 679, 267, 916, 762, 307, 896, 505, 62, 89, 825, 208, 556, 625, 186, 939, 704, 545, 164, 29, 866, 373, 107, 233, 895, 620, 734, 351, 748, 195, 812, 614, 137, 506, 977, 105, 986, 576, 23, 546, 10, 949, 218, 557, 510, 670, 576, 458, 476, 13, 484, 918, 605, 197, 158, 299, 678, 466, 685, 49, 201, 952, 598, 916, 592, 615, 267, 659, 386, 433, 821, 589, 790, 253, 87, 558, 31, 906, 431, 723, 43, 630, 212, 651, 27, 736, 26, 104, 800, 421, 113, 116, 186, 846, 248, 978, 667, 568, 243, 91, 695, 663, 732, 191, 694, 196, 326, 782, 719, 878, 922, 386, 423, 841, 940, 213, 260, 987, 29, 238, 772, 186, 977, 419, 621, 653, 555, 472, 202, 702, 799, 596, 565, 799, 49, 836, 486, 803, 661, 861, 459, 570, 703, 461, 584, 533, 66, 528, 380, 804, 213, 577, 928, 225, 960, 404, 338, 331, 490, 967, 383, 815, 704, 147, 201, 452, 836, 347, 459, 583, 218, 181, 790, 266, 272, 881, 536, 708, 914, 908, 847, 660, 900, 287, 527, 941, 248, 641, 723, 168, 272, 488, 41, 165, 348, 399, 159, 237, 716, 264, 203, 929, 315, 365, 65, 392, 187, 365, 717, 734, 994, 91, 866, 533, 95, 362, 973, 110, 252, 355, 805, 674, 161, 758, 357, 614, 826, 560, 753, 639, 979, 163, 930, 725, 42, 290, 363, 190, 272, 304, 385, 433, 969, 353, 544, 938, 878, 953, 418, 518, 624, 767, 95, 521, 860, 675, 741, 612, 962, 674, 445, 179, 637, 439, 596, 835, 560, 196, 801, 850, 517, 856, 279, 561, 74, 370, 443, 635, 678, 920, 966, 918, 207, 723, 914, 933, 371, 771, 330, 114, 987, 895, 854, 896, 283, 878, 36, 317, 641, 508, 385, 90, 103, 271, 335, 357, 416, 285, 922, 159, 121, 28, 908, 149, 414, 818, 428, 807, 781, 96, 490, 253, 801, 805, 968, 56, 991, 815, 741, 784, 334, 221, 201, 779, 82, 418, 737, 119, 527, 609, 518, 457, 90, 259, 662, 892, 905, 26, 396, 629, 131, 400, 876, 79, 761, 769, 726, 197, 533, 428, 508, 519, 553, 251, 567, 847, 686, 902, 935, 887, 176, 336, 60, 779, 739, 407, 683, 901, 897, 852, 199, 539, 955, 708, 245, 268, 450, 24, 918, 790, 614, 872, 199, 834, 402, 623, 536, 487, 633, 348, 164, 226, 200, 215, 89, 611, 877, 450, 308, 397, 731, 808, 575, 420, 308, 360, 468, 974, 629, 726, 131, 920, 650, 742, 920, 238, 607, 787, 458, 286, 765, 533, 656, 948, 60, 478, 467, 875, 656, 94, 540, 144, 1000, 176, 434, 675, 890, 714, 873, 677, 204, 603, 310, 14, 390, 740, 501, 317, 21, 675, 847, 791, 445, 635, 736, 202, 413, 283, 698, 268, 146, 648, 936, 775, 413, 270, 221, 304, 841, 30, 550, 756, 368, 417, 253, 369, 625, 943, 181, 826, 349, 773, 223, 818, 59, 194, 220, 719, 120, 977, 461, 289, 440, 113, 610, 576, 977, 369, 567, 19, 407, 303, 759, 651, 584, 489, 93, 91, 441, 458, 627, 413, 364, 159, 797, 683, 918, 730, 155, 453, 737, 512, 949, 674, 262, 480, 871, 158, 823, 789, 777, 723, 558, 709, 341, 833, 338, 289];
weights = [76, 93, 41, 33, 77, 50, 37, 52, 74, 17, 41, 33, 92, 28, 41, 38, 85, 11, 74, 47, 89, 80, 23, 28, 20, 52, 65, 87, 99, 36, 87, 80, 37, 91, 54, 18, 23, 24, 80, 100, 48, 28, 42, 45, 55, 38, 63, 16, 97, 59, 24, 44, 20, 24, 61, 71, 48, 94, 77, 98, 16, 14, 34, 50, 92, 80, 96, 73, 23, 66, 27, 91, 58, 17, 38, 72, 13, 35, 49, 69, 89, 57, 93, 16, 99, 46, 40, 62, 98, 29, 98, 15, 79, 86, 96, 10, 49, 84, 42, 68, 46, 74, 100, 39, 100, 96, 98, 66, 91, 20, 69, 100, 95, 88, 83, 15, 89, 59, 74, 52, 54, 86, 71, 81, 15, 62, 50, 30, 79, 67, 93, 74, 47, 17, 80, 91, 22, 37, 85, 34, 13, 13, 71, 82, 24, 10, 29, 10, 30, 94, 96, 25, 20, 84, 72, 99, 11, 11, 10, 74, 95, 86, 10, 90, 75, 55, 50, 82, 18, 74, 48, 62, 64, 23, 24, 41, 64, 82, 51, 16, 34, 62, 84, 53, 96, 31, 46, 96, 58, 12, 74, 28, 76, 23, 87, 12, 20, 80, 19, 39, 85, 11, 94, 32, 17, 33, 46, 79, 35, 77, 11, 39, 83, 34, 11, 75, 52, 22, 59, 32, 25, 27, 93, 83, 70, 16, 73, 97, 67, 39, 15, 82, 21, 46, 79, 30, 42, 94, 38, 95, 37, 72, 32, 25, 92, 67, 27, 12, 30, 83, 62, 92, 63, 43, 56, 75, 68, 50, 43, 90, 94, 98, 12, 81, 11, 52, 67, 59, 35, 51, 21, 76, 28, 92, 57, 58, 14, 81, 30, 77, 84, 11, 13, 43, 23, 69, 31, 73, 88, 34, 32, 42, 69, 31, 29, 68, 99, 65, 70, 98, 32, 90, 79, 57, 65, 80, 52, 32, 15, 73, 25, 49, 81, 37, 31, 86, 26, 80, 39, 10, 49, 90, 86, 25, 86, 50, 92, 37, 55, 97, 96, 22, 15, 42, 74, 16, 89, 33, 91, 25, 90, 59, 53, 77, 19, 25, 25, 90, 43, 72, 86, 12, 46, 88, 95, 87, 91, 95, 38, 43, 22, 77, 68, 89, 72, 68, 66, 77, 85, 87, 45, 54, 37, 70, 14, 93, 100, 43, 54, 51, 29, 18, 89, 77, 99, 33, 28, 93, 95, 46, 59, 90, 82, 29, 93, 63, 56, 44, 46, 70, 41, 25, 87, 42, 48, 79, 45, 23, 61, 70, 46, 16, 92, 69, 11, 87, 80, 31, 80, 36, 18, 91, 46, 66, 78, 64, 65, 31, 67, 81, 41, 51, 53, 33, 58, 66, 51, 14, 84, 74, 35, 30, 76, 62, 51, 95, 66, 65, 16, 26, 35, 80, 63, 87, 30, 49, 74, 29, 71, 55, 23, 69, 38, 67, 87, 29, 47, 52, 77, 89, 54, 44, 35, 53, 16, 74, 10, 51, 29, 42, 60, 26, 64, 62, 87, 34, 56, 83, 11, 74, 51, 38, 12, 85, 85, 61, 39, 38, 77, 35, 46, 57, 36, 65, 20, 87, 83, 51, 78, 73, 78, 34, 57, 73, 26, 41, 26, 80, 96, 84, 21, 53, 66, 75, 65, 65, 55, 39, 31, 66, 58, 81, 65, 85, 64, 93, 34, 15, 12, 93, 79, 13, 81, 67, 52, 77, 47, 81, 12, 55, 76, 81, 72, 83, 47, 34, 17, 12, 48, 60, 27, 30, 53, 36, 29, 90, 45, 97, 84, 82, 69, 39, 79, 37, 100, 21, 50, 50, 24, 12, 89, 37, 34, 92, 19, 81, 78, 21, 67, 24, 52, 45, 75, 55, 93, 91, 26, 36, 74, 19, 28, 32, 54, 65, 12, 13, 53, 64, 58, 90, 43, 12, 97, 14, 100, 55, 68, 14, 19, 45, 10, 18, 74, 34, 24, 69, 76, 76, 94, 30, 60, 42, 52, 59, 78, 45, 60, 35, 17, 75, 43, 44, 61, 47, 33, 11, 60, 85, 76, 65, 15, 58, 64, 69, 42, 25, 63, 51, 24, 100, 75, 29, 56, 98, 85, 54, 80, 26, 10, 79, 18, 30, 80, 37, 24, 38, 24, 32, 88, 93, 77, 58, 49, 36, 81, 53, 26, 24, 31, 78, 96, 66, 66, 86, 49, 83, 17, 19, 38, 83, 32, 10, 21, 10, 32, 12, 66, 52, 55, 66, 41, 84, 24, 84, 35, 84, 51, 70, 47, 85, 88, 25, 97, 23, 90, 71, 66, 48, 80, 90, 75, 10, 25, 68, 73, 34, 80, 21, 11, 23, 35, 60, 42, 57, 34, 94, 62, 42, 99, 95];
