ITEM = _(1..150);
capacities = [684, 908, 108];
profits = [416, 363, 144, 53, 61, 660, 281, 752, 969, 743, 792, 238, 646, 210, 667, 535, 341, 364, 677, 96, 361, 359, 837, 336, 451, 155, 666, 416, 939, 863, 425, 867, 377, 210, 456, 750, 829, 771, 569, 374, 151, 932, 70, 736, 923, 84, 771, 213, 53, 608, 657, 813, 69, 254, 970, 417, 215, 456, 973, 378, 421, 810, 734, 329, 413, 513, 204, 690, 459, 849, 112, 716, 235, 600, 288, 589, 358, 592, 383, 311, 644, 94, 314, 809, 328, 199, 107, 108, 726, 75, 509, 138, 494, 949, 775, 977, 277, 157, 408, 189, 77, 64, 201, 840, 137, 337, 805, 178, 843, 929, 67, 93, 540, 560, 39, 743, 543, 64, 236, 887, 373, 432, 915, 882, 662, 222, 330, 864, 410, 419, 577, 55, 399, 325, 219, 419, 416, 712, 322, 344, 586, 91, 831, 69, 496, 941, 225, 429, 304, 989];
weights = [87, 75, 54, 52, 42, 95, 81, 93, 14, 20, 47, 94, 14, 85, 54, 39, 22, 13, 53, 98, 53, 55, 83, 63, 20, 26, 43, 39, 10, 65, 87, 12, 52, 33, 99, 92, 22, 52, 40, 87, 10, 62, 100, 83, 59, 13, 61, 94, 36, 53, 46, 55, 76, 97, 64, 83, 22, 19, 59, 39, 32, 52, 70, 85, 56, 69, 25, 21, 32, 97, 28, 43, 21, 42, 77, 76, 97, 84, 38, 47, 75, 14, 55, 66, 96, 28, 48, 23, 96, 70, 26, 25, 82, 37, 100, 23, 97, 19, 24, 16, 50, 24, 40, 50, 96, 15, 60, 27, 78, 58, 98, 45, 30, 78, 88, 57, 38, 43, 68, 96, 12, 62, 62, 94, 27, 18, 46, 42, 68, 35, 34, 51, 51, 47, 87, 56, 47, 63, 36, 10, 83, 91, 91, 65, 75, 61, 87, 50, 24, 31];
