ITEM = _(1..100);
capacities = [973, 677, 477];
profits = [32, 147, 875, 993, 874, 77, 168, 939, 483, 772, 855, 382, 24, 603, 922, 451, 602, 582, 881, 51, 294, 720, 351, 48, 717, 951, 706, 82, 617, 676, 700, 931, 161, 841, 355, 891, 248, 251, 165, 819, 121, 49, 365, 916, 291, 655, 914, 63, 648, 777, 67, 180, 55, 188, 830, 303, 592, 250, 847, 645, 655, 738, 745, 984, 736, 319, 997, 36, 660, 112, 675, 438, 695, 848, 377, 132, 773, 731, 90, 81, 907, 61, 584, 123, 412, 132, 861, 771, 890, 901, 396, 166, 627, 898, 137, 62, 483, 175, 437, 292];
weights = [48, 40, 69, 54, 60, 72, 37, 72, 93, 46, 77, 32, 80, 56, 99, 69, 57, 89, 46, 36, 17, 26, 56, 61, 96, 97, 60, 48, 71, 74, 47, 28, 55, 38, 100, 40, 49, 57, 94, 40, 12, 28, 37, 92, 34, 88, 60, 16, 60, 82, 16, 22, 87, 73, 13, 23, 100, 73, 54, 42, 98, 10, 58, 87, 54, 23, 10, 76, 63, 57, 26, 75, 93, 59, 93, 76, 96, 29, 25, 82, 12, 48, 26, 36, 29, 34, 14, 40, 73, 89, 37, 20, 71, 97, 100, 79, 97, 100, 68, 34];
