ITEM = _(1..1000);
capacities = [469, 101, 394];
profits = [363, 596, 602, 653, 49, 660, 301, 992, 857, 771, 527, 763, 652, 949, 339, 766, 830, 347, 477, 550, 478, 720, 67, 385, 531, 558, 365, 881, 766, 950, 765, 337, 365, 920, 888, 300, 107, 237, 375, 258, 538, 417, 738, 576, 19, 520, 838, 150, 87, 169, 209, 814, 841, 384, 264, 541, 56, 172, 291, 684, 839, 237, 490, 304, 228, 288, 743, 37, 682, 912, 548, 525, 553, 393, 610, 284, 639, 263, 609, 693, 966, 205, 788, 384, 65, 485, 283, 390, 261, 122, 999, 37, 814, 542, 43, 187, 843, 119, 215, 291, 190, 35, 75, 476, 773, 938, 272, 789, 717, 970, 728, 463, 444, 180, 427, 873, 478, 859, 905, 638, 271, 542, 878, 274, 309, 907, 169, 291, 126, 745, 699, 367, 366, 973, 624, 183, 995, 281, 86, 790, 240, 846, 385, 186, 819, 416, 904, 427, 602, 311, 278, 289, 13, 115, 874, 907, 395, 737, 202, 314, 840, 943, 749, 506, 481, 839, 881, 731, 36, 730, 72, 205, 680, 308, 340, 500, 738, 149, 878, 361, 112, 248, 189, 763, 346, 330, 59, 567, 245, 850, 984, 136, 145, 843, 606, 909, 641, 50, 737, 735, 143, 988, 916, 608, 854, 782, 51, 934, 946, 103, 563, 973, 751, 347, 853, 953, 686, 262, 625, 682, 53, 424, 586, 362, 859, 956, 523, 824, 381, 68, 151, 232, 942, 979, 993, 953, 521, 907, 877, 323, 764, 474, 758, 875, 141, 393, 913, 907, 892, 854, 165, 430, 733, 559, 944, 559, 719, 118, 970, 65, 494, 158, 968, 110, 921, 277, 63, 744, 411, 902, 101, 766, 548, 346, 133, 926, 451, 698, 581, 490, 846, 504, 546, 663, 281, 81, 374, 979, 925, 561, 843, 489, 349, 573, 17, 778, 624, 123, 37, 639, 554, 957, 292, 801, 108, 971, 347, 711, 534, 404, 73, 449, 106, 691, 708, 133, 805, 211, 702, 203, 703, 240, 823, 699, 691, 528, 252, 802, 541, 529, 620, 508, 216, 980, 739, 892, 842, 802, 232, 786, 983, 753, 440, 81, 207, 850, 607, 803, 498, 557, 208, 271, 740, 596, 941, 509, 725, 324, 653, 631, 747, 727, 899, 728, 426, 813, 257, 942, 312, 512, 265, 786, 512, 401, 808, 367, 170, 833, 970, 621, 995, 698, 523, 979, 897, 252, 774, 927, 776, 932, 170, 820, 822, 25, 963, 657, 285, 44, 637, 460, 50, 719, 394, 744, 623, 253, 836, 160, 332, 672, 200, 727, 673, 736, 265, 608, 167, 49, 99, 413, 149, 576, 135, 704, 490, 334, 271, 629, 909, 567, 265, 740, 94, 425, 203, 640, 361, 539, 380, 244, 304, 842, 383, 963, 145, 275, 691, 649, 952, 487, 807, 915, 118, 808, 168, 471, 114, 161, 279, 129, 450, 701, 762, 469, 52, 587, 472, 163, 583, 865, 168, 606, 561, 407, 484, 766, 748, 771, 292, 966, 940, 316, 394, 94, 774, 627, 662, 268, 987, 18, 229, 107, 695, 334, 52, 82, 618, 832, 351, 846, 942, 240, 576, 384, 839, 435, 529, 956, 390, 104, 598, 982, 115, 482, 730, 678, 435, 941, 828, 588, 765, 277, 145, 596, 740, 815, 169, 798, 740, 66, 485, 418, 972, 795, 941, 586, 904, 793, 771, 967, 666, 180, 602, 11, 907, 200, 271, 212, 806, 213, 708, 80, 255, 803, 109, 145, 293, 173, 426, 282, 706, 290, 254, 83, 699, 520, 413, 609, 885, 104, 745, 527, 301, 534, 312, 169, 636, 225, 774, 154, 988, 54, 63, 259, 872, 204, 811, 909, 782, 280, 81, 480, 721, 246, 978, 70, 151, 956, 871, 157, 83, 609, 231, 477, 108, 151, 655, 294, 270, 729, 459, 337, 18, 896, 312, 864, 379, 154, 578, 195, 55, 855, 909, 518, 720, 903, 658, 673, 745, 114, 466, 951, 846, 427, 612, 992, 317, 752, 199, 200, 455, 376, 431, 993, 552, 169, 530, 353, 714, 207, 646, 112, 787, 527, 850, 264, 689, 955, 697, 222, 528, 276, 395, 562, 448, 618, 413, 696, 209, 498, 422, 589, 414, 73, 194, 284, 425, 202, 518, 480, 874, 46, 395, 781, 938, 54, 138, 863, 875, 748, 330, 373, 839, 691, 369, 604, 215, 632, 989, 769, 686, 704, 26, 53, 312, 83, 284, 907, 835, 248, 506, 786, 873, 561, 265, 913, 503, 423, 196, 713, 281, 76, 980, 230, 348, 183, 536, 859, 950, 86, 196, 108, 900, 543, 142, 161, 191, 606, 834, 692, 525, 400, 949, 226, 270, 83, 140, 517, 489, 407, 729, 327, 744, 748, 697, 405, 278, 159, 551, 10, 841, 352, 715, 626, 542, 29, 16, 724, 603, 682, 903, 486, 658, 450, 447, 522, 826, 303, 589, 601, 350, 817, 581, 946, 133, 699, 37, 863, 955, 826, 126, 310, 33, 48, 837, 153, 394, 319, 673, 435, 731, 983, 888, 399, 697, 176, 330, 774, 779, 291, 607, 521, 504, 800, 343, 500, 329, 87, 668, 313, 451, 140, 125, 174, 975, 695, 148, 854, 149, 191, 845, 793, 896, 682, 380, 336, 883, 970, 882, 861, 861, 592, 465, 327, 785, 308, 413, 860, 278, 996, 739, 443, 255, 402, 323, 449, 956, 230, 865, 235, 24, 327, 587, 63, 158, 27, 745, 263, 810, 673, 232, 921, 553, 514, 503, 837, 12, 845, 144, 489, 579, 511, 522, 941, 604, 701, 627, 530, 972, 978, 398, 423, 330, 27, 982, 580, 267, 950, 223, 819, 81, 761, 27, 479, 418, 337, 78, 699, 724, 361, 547, 661, 171, 815, 807, 785, 600, 58, 556, 134, 564, 821, 393, 286, 41, 518, 639, 942, 376, 610, 827, 935, 512, 122, 493, 398, 534, 565, 954, 35, 293, 280, 349, 419, 747, 951, 936, 426, 640, 174, 888, 441, 928, 127, 560, 79, 204, 169, 600, 947, 122, 299, 252, 414, 703, 23, 483, 826, 657, 168, 848, 594, 316, 870, 573, 808, 353, 33, 874, 876, 180, 939, 578, 604, 529, 921, 324, 795, 953, 189, 124, 111, 588, 500, 824, 226, 102, 419, 583, 59];
weights = [76, 98, 10, 97, 67, 61, 36, 65, 26, 32, 55, 28, 98, 30, 39, 72, 63, 64, 59, 78, 78, 34, 16, 97, 56, 38, 85, 63, 70, 50, 34, 17, 67, 37, 81, 49, 52, 72, 99, 60, 67, 88, 96, 81, 51, 80, 79, 82, 73, 23, 20, 62, 87, 87, 34, 14, 28, 81, 57, 94, 67, 98, 48, 39, 99, 90, 30, 59, 44, 99, 71, 49, 43, 24, 57, 59, 16, 29, 69, 53, 22, 12, 18, 50, 55, 93, 71, 11, 20, 56, 52, 91, 66, 19, 79, 50, 40, 77, 24, 96, 19, 78, 62, 98, 29, 33, 40, 50, 74, 93, 93, 46, 94, 24, 65, 75, 82, 21, 56, 48, 22, 21, 74, 49, 32, 36, 56, 21, 20, 44, 59, 86, 49, 82, 40, 26, 17, 83, 34, 40, 15, 72, 46, 48, 18, 63, 84, 98, 74, 99, 76, 27, 53, 24, 92, 67, 12, 15, 82, 72, 41, 64, 36, 57, 86, 61, 37, 29, 74, 41, 49, 16, 61, 65, 44, 84, 41, 72, 46, 89, 94, 64, 53, 41, 31, 94, 49, 24, 41, 79, 60, 57, 26, 85, 100, 47, 42, 42, 49, 33, 28, 33, 12, 60, 40, 54, 24, 34, 56, 73, 64, 85, 83, 16, 27, 91, 41, 51, 41, 97, 44, 66, 85, 73, 54, 87, 75, 28, 72, 93, 62, 86, 91, 77, 11, 32, 77, 65, 55, 71, 31, 17, 26, 16, 50, 54, 17, 85, 78, 50, 23, 84, 12, 44, 58, 91, 34, 35, 28, 67, 22, 77, 59, 54, 47, 10, 38, 44, 23, 62, 27, 59, 17, 52, 55, 42, 97, 18, 35, 24, 56, 63, 82, 89, 24, 48, 15, 82, 23, 45, 59, 12, 19, 46, 69, 98, 78, 14, 14, 34, 88, 49, 40, 16, 19, 57, 10, 83, 32, 15, 35, 45, 36, 35, 45, 98, 82, 35, 49, 15, 28, 19, 50, 71, 12, 95, 24, 98, 56, 79, 71, 33, 36, 41, 23, 57, 42, 13, 50, 69, 69, 68, 48, 23, 54, 48, 45, 34, 18, 67, 29, 81, 81, 49, 52, 54, 61, 77, 34, 21, 14, 94, 19, 55, 77, 37, 59, 22, 71, 68, 65, 67, 55, 69, 36, 34, 70, 31, 36, 45, 31, 36, 21, 13, 25, 97, 33, 85, 24, 73, 43, 87, 62, 91, 65, 66, 11, 70, 27, 92, 51, 86, 28, 62, 83, 20, 24, 61, 99, 22, 64, 42, 86, 88, 79, 93, 99, 46, 37, 41, 70, 46, 19, 90, 79, 32, 76, 82, 10, 26, 62, 84, 13, 46, 92, 86, 70, 75, 15, 41, 29, 79, 32, 95, 73, 82, 49, 44, 97, 57, 70, 38, 91, 30, 78, 14, 21, 54, 11, 42, 78, 72, 22, 34, 56, 11, 80, 21, 44, 73, 75, 43, 10, 88, 95, 57, 24, 65, 79, 64, 90, 13, 25, 40, 65, 25, 87, 35, 11, 92, 42, 45, 58, 31, 95, 27, 55, 47, 29, 89, 87, 72, 56, 65, 48, 94, 52, 65, 12, 18, 94, 45, 41, 41, 41, 93, 56, 81, 55, 57, 52, 43, 35, 47, 66, 23, 33, 27, 88, 59, 16, 32, 45, 44, 35, 23, 26, 49, 33, 51, 55, 44, 89, 85, 85, 14, 19, 69, 27, 80, 77, 73, 80, 83, 29, 69, 15, 93, 58, 89, 52, 79, 53, 26, 86, 45, 64, 66, 34, 65, 96, 10, 22, 76, 14, 35, 14, 56, 16, 29, 35, 40, 28, 59, 55, 13, 10, 63, 27, 92, 48, 28, 15, 20, 94, 68, 37, 33, 13, 68, 70, 11, 41, 99, 45, 84, 94, 61, 43, 85, 48, 69, 18, 63, 21, 92, 53, 15, 75, 16, 23, 96, 66, 21, 45, 14, 85, 52, 25, 89, 26, 59, 20, 71, 23, 34, 85, 14, 66, 93, 90, 95, 27, 39, 62, 25, 27, 36, 100, 48, 85, 62, 30, 11, 71, 98, 70, 88, 35, 64, 95, 15, 88, 19, 40, 21, 51, 100, 70, 41, 58, 26, 93, 29, 67, 68, 21, 26, 69, 67, 63, 42, 34, 86, 71, 43, 24, 40, 94, 65, 86, 20, 55, 65, 88, 78, 39, 37, 82, 53, 42, 47, 52, 13, 18, 19, 54, 46, 85, 65, 59, 49, 90, 76, 69, 58, 65, 75, 95, 76, 26, 54, 58, 89, 80, 49, 55, 94, 29, 31, 56, 87, 68, 97, 26, 30, 34, 30, 72, 97, 91, 30, 54, 11, 21, 10, 79, 39, 97, 42, 42, 11, 78, 85, 53, 49, 78, 74, 99, 85, 73, 74, 68, 39, 91, 59, 82, 12, 51, 87, 37, 52, 80, 10, 94, 55, 38, 20, 74, 94, 10, 11, 99, 43, 95, 40, 46, 79, 64, 29, 58, 34, 60, 50, 24, 12, 11, 79, 77, 41, 30, 39, 78, 80, 78, 58, 51, 60, 44, 100, 60, 29, 32, 90, 98, 68, 66, 63, 83, 96, 21, 29, 80, 84, 32, 72, 19, 75, 13, 49, 24, 86, 16, 13, 84, 100, 19, 86, 63, 53, 91, 76, 91, 27, 39, 48, 38, 11, 57, 22, 77, 61, 21, 60, 71, 21, 12, 92, 87, 25, 65, 20, 26, 47, 56, 76, 49, 38, 88, 61, 20, 80, 64, 32, 67, 52, 14, 77, 47, 66, 64, 40, 85, 36, 27, 33, 71, 73, 16, 25, 54, 30, 27, 26, 62, 24, 67, 14, 77, 62, 89, 34, 77, 59, 93, 99, 93, 27, 70, 67, 54, 74, 80, 37, 27, 70, 90, 25, 98, 73, 83, 38, 63, 34, 85, 38, 49, 47, 98, 77, 38, 19, 10, 10, 62, 63, 44, 87, 45, 85, 32, 94, 69, 17, 32, 15, 79, 91, 34, 28, 22, 33, 63, 76, 31, 44, 66, 12, 22, 25, 19, 40, 36, 85, 31, 19, 64, 64, 64, 50, 28, 33, 61, 39, 85, 60, 84, 98, 69, 55, 100, 28, 81, 72, 21, 55, 12, 84, 24, 79, 52, 100, 50, 12, 65, 83, 28, 23, 13, 14];
