ITEM = _(1..80);
capacities = [619, 360, 984];
profits = [830, 823, 288, 56, 726, 439, 534, 194, 387, 749, 127, 846, 165, 868, 143, 419, 750, 283, 505, 435, 828, 946, 315, 559, 462, 228, 342, 400, 371, 576, 356, 807, 346, 591, 991, 311, 878, 104, 318, 347, 985, 345, 354, 939, 333, 46, 873, 640, 947, 341, 746, 806, 609, 833, 731, 922, 404, 949, 916, 138, 715, 373, 997, 57, 659, 887, 797, 854, 537, 342, 412, 671, 406, 275, 846, 570, 142, 587, 734, 266];
weights = [61, 75, 95, 19, 77, 20, 75, 12, 49, 90, 24, 48, 84, 100, 33, 19, 20, 41, 100, 38, 64, 91, 16, 35, 45, 47, 45, 83, 98, 41, 13, 71, 46, 68, 59, 62, 19, 79, 48, 59, 100, 17, 31, 45, 40, 75, 57, 83, 57, 79, 35, 69, 40, 94, 39, 65, 11, 56, 63, 21, 22, 22, 59, 79, 13, 10, 72, 59, 52, 59, 52, 27, 92, 55, 44, 42, 64, 32, 85, 68];
